BEGIN IONS
PEPMASS=353.233
CHARGE=1
MSLEVEL=2
SOURCE_INSTRUMENT=LC-ESI-Maxis II HD Q-TOF Bruker
FILENAME=JnJ_10uL_B8_GB8_01_2115.mzXML
SEQ=*..*
IONMODE=negative
ORGANISM=GNPS-COLLECTIONS-MISC
NAME=Eicosanoids_15kPGF1?_C20H34O5 M-H
PI=Dorrestein/Wu
DATACOLLECTOR=lfnothias
SMILES=n/a
INCHI=n/a
INCHIAUX=N/A
PUBMED=n/a
SUBMITUSER=mwang87
LIBRARYQUALITY=1
SPECTRUMID=CCMSLIB00001058175
SCANS=492
87.007996	261.0
89.022697	314.0
96.273048	151.0
96.963608	581.0
102.955368	242.0
104.949806	226.0
111.083214	216.0
112.986023	8493.0
113.103653	195.0
113.988251	304.0
114.989845	524.0
116.75956	265.0
118.987183	278.0
122.251839	93.0
122.974686	130.0
127.034119	247.0
129.06218	146.0
129.976685	162.0
130.996292	642.0
132.661606	207.0
132.865341	309.0
132.993637	177.0
134.863937	475.0
138.015762	155.0
140.98114	583.0
142.974106	280.0
143.111435	282.0
144.039963	789.0
144.987274	300.0
146.959961	488.0
148.944733	362.0
149.003098	473.0
149.988403	142.0
150.983704	207.0
152.922485	199.0
153.94043	203.0
156.988129	276.0
158.976974	612.0
159.065704	278.0
159.946793	175.0
159.979248	293.0
161.006302	333.0
161.087357	277.0
164.949631	280.0
166.703156	159.0
168.988937	288.0
170.771835	259.0
170.932983	291.0
171.687561	99.0
171.836121	107.0
172.870804	126.0
173.467758	219.0
174.954742	4491.0
175.320251	134.0
175.764587	208.0
176.992432	145.0
177.228226	184.0
177.848923	204.0
178.991348	221.0
180.969955	1173.0
182.744522	107.0
185.045624	209.0
185.182327	166.0
187.004379	375.0
187.09433	186.0
187.134354	130.0
187.689346	66.0
187.757721	138.0
188.886871	228.0
189.010803	380.0
190.886398	192.0
190.924911	613.0
191.017838	327.0
193.087402	260.0
194.985275	380.0
196.979004	213.0
199.934509	549.0
201.009506	205.0
202.164581	150.0
202.963669	208.0
202.991928	227.0
204.312271	149.0
205.155319	189.0
205.956009	106.0
206.990616	258.0
209.868927	124.0
216.962753	290.0
217.144119	120.0
218.833084	208.0
219.010773	333.0
219.52272	99.0
221.03981	213.0
223.022293	266.0
223.061874	222.0
224.926056	240.0
225.18895	139.0
228.898041	226.0
229.140228	100.0
229.755981	108.0
231.003372	395.0
232.911255	250.0
232.955551	181.0
232.983261	381.0
233.013657	320.0
236.99971	220.0
239.05864	3019.0
240.061813	615.0
240.910019	680.0
241.908188	179.0
242.942825	1900.0
242.994507	252.0
244.946869	293.0
244.985962	383.0
246.497192	187.0
246.933395	380.0
247.01683	187.0
247.251083	165.0
248.957474	950.0
249.806412	161.0
251.125656	262.0
251.807816	197.0
254.184616	125.0
254.903976	293.0
255.229507	181.0
255.92485	140.0
256.932068	134.0
257.546326	246.0
258.974091	450.0
259.003418	529.0
260.473511	58.0
260.91629	221.0
260.998779	182.0
261.986725	170.0
263.018463	127.0
264.016022	229.0
265.002899	377.0
265.922333	204.0
266.934174	250.0
267.124664	120.0
268.066193	176.0
268.167816	147.0
268.995148	378.0
269.025574	171.0
269.141632	234.0
270.975128	226.0
271.017242	295.0
272.886658	205.0
273.007477	168.0
274.995331	778.0
277.00589	508.0
277.99295	198.0
280.999023	1696.0
281.997528	119.0
282.973846	252.0
283.087494	420.0
283.123718	245.0
283.974609	479.0
284.999237	505.0
285.12262	193.0
287.012115	289.0
287.03656	256.0
287.191406	221.0
288.371948	59.0
288.935028	326.0
288.975555	487.0
289.007324	388.0
290.989838	505.0
291.010986	536.0
292.02594	163.0
292.986084	222.0
294.006592	300.0
295.008087	435.0
295.0513	312.0
296.135895	269.0
296.997253	1391.0
300.868683	167.0
301.01712	736.0
301.088287	196.0
303.007263	363.0
303.712769	164.0
303.974701	82.0
304.854156	272.0
304.916168	405.0
304.981171	210.0
306.925201	132.0
306.978912	225.0
307.019684	501.0
308.916534	299.0
308.999451	519.0
309.040894	397.0
309.136627	284.0
309.991241	157.0
310.932068	716.0
311.004059	445.0
312.057922	114.0
312.863281	188.0
312.993103	189.0
313.110931	157.0
315.024445	502.0
315.996674	83.0
316.82196	138.0
316.948486	1490.0
317.032501	285.0
317.156342	227.0
317.210358	223.0
317.647949	316.0
317.957489	334.0
318.97821	314.0
319.040344	117.0
319.993622	207.0
321.006592	425.0
322.892975	146.0
324.011993	217.0
324.088287	177.0
324.541412	208.0
325.003235	672.0
325.077118	233.0
325.178925	212.0
326.296295	157.0
326.900848	410.0
327.002563	425.0
328.000305	62.0
329.013458	199.0
330.040222	179.0
330.848877	245.0
331.01236	372.0
331.99292	141.0
333.015228	485.0
334.989624	149.0
335.222778	764.0
335.379791	149.0
335.917908	221.0
336.998627	320.0
337.023193	375.0
339.007019	863.0
340.954712	240.0
341.000824	115.0
341.995453	232.0
342.983551	418.0
343.012177	556.0
344.046814	105.0
344.085083	68.0
344.987518	683.0
346.006989	393.0
346.966553	171.0
347.023071	124.0
348.924774	254.0
349.001862	290.0
349.921021	51.0
350.938538	283.0
351.00769	626.0
351.042664	288.0
351.172119	159.0
352.903778	161.0
352.969635	160.0
353.03299	242.0
353.2341	55738.0
353.374573	201.0
354.238831	14983.0
354.990845	170.0
355.23999	2231.0
356.040802	239.0
356.238037	236.0
356.379028	173.0
356.723602	155.0
356.984131	420.0
357.054901	192.0
357.390045	135.0
357.975037	221.0
359.007782	448.0
359.054443	128.0
359.901123	104.0
360.913086	434.0
361.009796	583.0
362.892761	205.0
362.958374	176.0
362.999512	231.0
364.91507	125.0
365.005554	363.0
365.587708	123.0
366.98172	343.0
367.023712	248.0
368.889465	176.0
368.989624	333.0
369.016174	340.0
369.623962	171.0
370.002228	92.0
370.513733	110.0
370.586731	116.0
371.024231	520.0
371.912994	61.0
371.958191	209.0
372.814606	84.0
372.898926	512.0
373.010193	893.0
373.543152	113.0
374.021118	203.0
375.323242	98.0
376.999817	690.0
377.145996	88.0
378.906403	843.0
378.925293	810.0
379.026581	439.0
380.022888	126.0
380.897034	349.0
381.017792	342.0
381.998138	94.0
382.963379	333.0
383.012909	357.0
384.017792	106.0
384.37085	121.0
384.88205	168.0
384.93692	382.0
385.002106	137.0
385.038483	180.0
386.998535	185.0
387.16217	153.0
387.992889	167.0
388.871002	213.0
389.00827	951.0
389.11676	112.0
389.21286	865.0
390.207733	404.0
390.88504	95.0
391.002686	566.0
391.206787	839.0
391.40567	320.0
392.979889	153.0
393.215271	252.0
394.905884	376.0
394.95993	369.0
395.006958	439.0
395.261505	149.0
396.999023	221.0
397.060455	226.0
397.196838	180.0
398.989075	452.0
399.036926	291.0
399.239441	1105.0
400.239716	186.0
401.000061	499.0
403.003418	814.0
404.001923	226.0
404.998627	728.0
405.985443	183.0
407.043701	160.0
408.984863	668.0
409.87912	232.0
410.24585	166.0
411.010742	447.0
411.186584	594.0
412.024292	168.0
412.740509	53.0
412.944275	135.0
413.003082	252.0
413.044434	124.0
413.247498	243.0
413.778687	52.0
414.128937	156.0
414.8909	121.0
414.997589	718.0
415.056244	188.0
417.008575	380.0
419.002136	518.0
419.03595	429.0
420.994202	339.0
421.053467	247.0
421.219421	6595.0
422.225098	658.0
423.228333	652.0
424.012604	586.0
424.245148	350.0
424.973297	84.0
425.079956	225.0
426.002533	139.0
426.838715	214.0
426.984741	242.0
427.024231	321.0
429.005188	255.0
430.17865	265.0
430.69455	108.0
432.006805	260.0
433.016663	806.0
434.236847	255.0
434.864044	129.0
434.998718	303.0
436.273773	99.0
436.87204	622.0
436.99707	894.0
437.04834	153.0
437.150391	368.0
438.993927	193.0
440.154358	237.0
440.53006	51.0
440.892639	600.0
440.977142	237.0
442.398987	148.0
443.006256	268.0
443.114136	118.0
443.866852	186.0
444.822357	206.0
445.005768	510.0
446.904663	830.0
447.009766	469.0
447.044434	491.0
448.391418	219.0
449.009216	166.0
449.05014	130.0
449.21286	297.0
449.32785	99.0
450.657196	189.0
450.979034	262.0
451.209137	423.0
451.337494	52.0
452.159882	83.0
452.848663	544.0
452.932709	895.0
453.019592	399.0
453.148346	131.0
454.735626	105.0
454.889648	289.0
455.011322	1009.0
456.306213	200.0
456.983551	261.0
457.032196	238.0
457.280487	198.0
457.850098	226.0
458.110657	454.0
458.298157	216.0
459.015625	815.0
459.968079	134.0
460.151917	140.0
461.014252	525.0
462.147705	234.0
462.216492	201.0
462.906586	160.0
463.006622	358.0
463.215057	358.0
464.681366	168.0
464.974274	155.0
465.024841	476.0
465.236908	157.0
465.629608	153.0
467.341614	251.0
468.985168	298.0
470.037354	80.0
470.991241	172.0
472.110992	154.0
472.213501	431.0
473.161316	579.0
474.997467	178.0
475.049835	461.0
475.860504	163.0
478.789368	207.0
478.837128	204.0
478.940399	101.0
479.053375	100.0
479.166962	208.0
480.202454	200.0
481.18985	292.0
481.891449	87.0
483.014435	404.0
483.184357	132.0
483.227905	302.0
485.005859	299.0
485.190979	260.0
486.179993	83.0
487.02179	238.0
488.424408	126.0
488.77359	190.0
489.011261	613.0
489.108551	210.0
489.201996	1965.0
489.411072	83.0
490.216095	731.0
490.26059	166.0
492.202728	245.0
492.888824	141.0
492.997223	224.0
493.04129	203.0
493.19632	212.0
494.006042	244.0
494.997253	109.0
495.032806	202.0
495.819214	276.0
496.878326	340.0
496.995331	210.0
497.029755	299.0
498.863831	188.0
499.009888	90.0
499.296997	183.0
500.69397	104.0
501.018158	162.0
501.319427	110.0
502.85614	169.0
503.021912	482.0
503.225006	213.0
504.847534	78.0
505.2836	119.0
506.827576	239.0
506.905212	126.0
506.984711	126.0
507.03479	243.0
507.185394	189.0
508.868652	472.0
508.991425	382.0
510.988403	267.0
511.187927	129.0
511.245758	174.0
512.877197	373.0
512.990906	426.0
514.291748	146.0
514.701477	267.0
514.897644	227.0
514.995972	216.0
516.017578	170.0
516.076172	132.0
517.024048	404.0
517.533203	180.0
520.919128	455.0
521.02002	152.0
521.89679	122.0
524.897278	242.0
525.005859	208.0
525.880005	140.0
526.998535	407.0
527.999268	228.0
528.812012	57.0
529.024841	315.0
529.85498	344.0
532.993042	244.0
533.179077	120.0
534.965881	146.0
537.002258	367.0
537.081787	159.0
537.913635	139.0
538.951477	179.0
538.997925	210.0
540.925842	191.0
541.036072	123.0
543.04364	169.0
545.008423	336.0
546.004395	220.0
546.970886	180.0
547.02063	185.0
547.353271	334.0
548.997253	545.0
549.150024	240.0
549.850525	199.0
549.997253	110.0
551.18811	681.0
552.18335	348.0
553.290588	315.0
554.859985	193.0
555.034241	130.0
556.058899	174.0
556.432556	159.0
556.865295	209.0
557.201172	620.0
557.268799	139.0
558.197388	349.0
558.408813	124.0
559.029114	548.0
559.075928	121.0
561.004944	186.0
561.085632	108.0
561.869568	140.0
562.859802	232.0
562.99646	312.0
564.065063	254.0
564.864258	78.0
564.936768	150.0
566.835205	277.0
567.073242	199.0
570.01062	124.0
570.084961	104.0
570.998352	165.0
571.042175	428.0
572.792969	184.0
572.876404	68.0
573.88147	203.0
574.161499	244.0
574.954529	167.0
575.035278	193.0
575.511536	223.0
576.844849	233.0
577.003784	96.0
577.327942	355.0
579.332153	301.0
580.241394	304.0
581.768311	243.0
582.876221	277.0
583.004761	159.0
584.796021	154.0
585.009949	80.0
585.81781	254.0
588.991699	230.0
589.147095	202.0
589.66095	53.0
590.827698	153.0
592.796692	106.0
592.84082	258.0
592.997559	277.0
594.058899	290.0
595.085632	215.0
596.033264	169.0
597.801453	170.0
598.888062	189.0
600.972778	327.0
604.828674	354.0
607.009583	127.0
609.024292	86.0
612.13092	337.0
613.543579	227.0
614.075134	150.0
615.843079	58.0
616.402405	73.0
617.036682	63.0
617.185303	343.0
617.762268	219.0
617.980652	74.0
618.058044	131.0
618.315979	112.0
618.848206	56.0
619.156067	262.0
619.185364	293.0
619.227844	180.0
619.276794	309.0
620.118591	62.0
621.010315	67.0
621.314758	88.0
621.452942	344.0
623.03064	235.0
624.068054	238.0
625.183655	118.0
625.340515	263.0
626.322754	239.0
627.364685	76.0
629.079468	106.0
629.914368	303.0
630.982117	194.0
631.089294	142.0
631.896606	335.0
632.010925	109.0
633.248718	72.0
633.322876	131.0
634.991821	137.0
635.764648	124.0
636.745911	198.0
637.238892	294.0
638.822205	212.0
639.001221	354.0
639.051636	128.0
641.152222	175.0
642.826294	62.0
644.851746	697.0
645.312683	199.0
646.990906	153.0
649.30365	183.0
651.021851	334.0
651.099976	164.0
651.141052	164.0
651.744812	238.0
652.401428	135.0
653.046936	242.0
654.843323	207.0
655.996216	343.0
656.852112	163.0
656.958923	143.0
656.999756	260.0
658.0224	275.0
658.114563	205.0
658.926208	154.0
659.064026	198.0
659.320862	250.0
659.384338	62.0
659.446594	257.0
660.446716	138.0
660.8125	66.0
660.997559	176.0
661.038513	549.0
661.332031	253.0
663.030334	106.0
663.777771	208.0
665.065491	290.0
666.01886	2232.0
666.908203	163.0
667.009338	255.0
668.055664	215.0
668.83783	185.0
668.993469	105.0
669.083557	154.0
675.062744	121.0
675.995667	293.0
677.001953	142.0
677.237732	217.0
679.057068	146.0
681.152771	132.0
682.0	185.0
682.691772	282.0
682.989258	339.0
683.871338	149.0
684.045837	275.0
686.894592	305.0
687.153748	132.0
688.306213	226.0
689.290894	323.0
691.005676	201.0
691.070862	224.0
692.75592	178.0
693.007019	257.0
695.065491	364.0
697.00415	267.0
699.783875	110.0
702.806152	475.0
706.993286	118.0
707.466064	1704.0
708.479431	816.0
712.799561	71.0
713.044617	158.0
717.239014	207.0
718.974121	293.0
720.87384	233.0
720.985291	135.0
722.074829	167.0
724.881226	313.0
726.052124	231.0
729.117676	135.0
729.463135	340.0
729.799561	229.0
729.931458	180.0
730.479797	371.0
731.399658	177.0
731.545898	140.0
735.004395	66.0
737.024841	233.0
739.002075	177.0
740.348206	159.0
741.104553	130.0
741.261536	255.0
743.088013	160.0
744.880859	181.0
745.384094	171.0
747.018066	67.0
747.897949	90.0
748.352905	235.0
750.273865	271.0
752.821289	163.0
755.020874	209.0
755.981262	111.0
756.155396	220.0
759.062378	171.0
759.264771	383.0
760.943359	296.0
761.09491	161.0
762.164551	282.0
763.085938	272.0
765.365784	259.0
768.044861	192.0
770.004517	216.0
772.029175	167.0
773.048584	210.0
776.089294	104.0
780.813354	187.0
786.841125	329.0
787.791382	217.0
788.986755	186.0
790.043396	150.0
791.417297	412.0
793.393372	248.0
794.945251	121.0
797.444946	167.0
798.421509	95.0
798.568909	146.0
799.124878	197.0
800.396179	135.0
802.126648	186.0
803.125977	53.0
807.039185	125.0
809.018127	138.0
812.893127	197.0
813.093689	155.0
815.127197	187.0
824.306702	197.0
824.531372	165.0
830.915894	182.0
831.09021	339.0
832.846863	120.0
833.756042	333.0
835.93866	173.0
839.402344	318.0
839.606018	83.0
845.096558	202.0
845.824951	93.0
846.842285	148.0
848.831055	279.0
855.058167	74.0
859.399963	114.0
865.452759	212.0
869.257751	128.0
871.005005	147.0
871.221252	244.0
872.420044	96.0
880.023254	56.0
883.969482	84.0
884.11792	110.0
885.539307	222.0
887.187805	163.0
894.019226	462.0
894.91217	254.0
895.013489	355.0
895.997192	137.0
896.742737	113.0
897.147278	92.0
898.71106	130.0
903.042297	152.0
907.377441	202.0
909.886963	97.0
921.849792	217.0
923.141907	137.0
923.816162	152.0
928.735901	196.0
934.768005	94.0
935.064575	102.0
946.527649	258.0
947.026245	68.0
948.731201	128.0
951.829102	75.0
953.3573	129.0
953.75	103.0
954.93866	114.0
955.064514	126.0
955.375671	52.0
955.697266	114.0
955.964661	16713.0
956.524292	194.0
956.967224	4278.0
957.621277	291.0
957.969543	6386.0
958.204285	102.0
958.877441	158.0
958.961426	836.0
959.921753	202.0
960.014709	108.0
961.222595	211.0
961.487305	134.0
961.99408	84.0
962.492554	253.0
962.551453	216.0
964.091309	120.0
964.465149	118.0
964.573303	184.0
965.067078	189.0
965.31311	132.0
965.46283	104.0
965.725403	178.0
965.795715	287.0
965.995483	77094.0
966.18457	158.0
966.262207	155.0
966.423828	130.0
967.001038	14261.0
967.168213	323.0
967.993469	2137.0
968.505676	171.0
968.571289	102.0
969.000366	291.0
969.240723	52.0
969.997986	238.0
971.043335	104.0
971.186279	165.0
971.230774	154.0
971.720276	89.0
974.777283	59.0
975.364929	133.0
977.010254	199.0
978.180786	72.0
982.986023	4974.0
983.084717	197.0
983.631836	243.0
983.985107	734.0
984.846436	102.0
984.968933	261.0
985.741821	176.0
991.002625	82.0
998.977905	164.0
1001.976379	77.0
1002.382446	203.0
1003.812927	234.0
1008.016907	320.0
1012.355286	103.0
1017.970215	240.0
1020.99884	136.0
1023.038452	182.0
1023.963135	78.0
1032.179077	271.0
1033.098633	160.0
1033.977295	1436.0
1035.990723	164.0
1044.762817	156.0
1048.044067	158.0
1053.810913	113.0
1053.995972	154.0
1054.337646	114.0
1054.675293	346.0
1055.762939	141.0
1055.866089	794.0
1056.851562	339.0
1056.957397	248.0
1057.882812	65.0
1058.96228	106.0
1059.772949	149.0
1060.948975	299.0
1062.901855	170.0
1065.984009	131.0
1074.469849	153.0
1079.94165	219.0
1083.98999	141.0
1084.88269	102.0
1098.024414	50.0
1099.950928	155.0
1106.151611	157.0
1109.583496	92.0
1115.014282	261.0
1120.855835	216.0
1120.981201	58.0
1147.999023	149.0
1167.541016	152.0
1187.321777	253.0
1216.022705	272.0
1225.023438	143.0
1226.009888	218.0
1246.208984	142.0
1257.027588	78.0
1273.023071	109.0
1274.674438	72.0
1309.92981	125.0
1312.022827	173.0
1314.041138	65.0
1314.594482	110.0
1317.692627	135.0
1345.998901	246.0
1347.309326	298.0
1347.690674	207.0
1380.657715	175.0
1399.496948	77.0
1411.567017	210.0
1418.124268	126.0
1436.041504	168.0
1462.388672	65.0
END IONS


BEGIN IONS
PEPMASS=353.232
CHARGE=1
MSLEVEL=2
SOURCE_INSTRUMENT=LC-ESI-Maxis II HD Q-TOF Bruker
FILENAME=JnJ_10uL_B3_GB3_01_2587.mzXML
SEQ=*..*
IONMODE=positive
ORGANISM=GNPS-COLLECTIONS-MISC
NAME=Eicosanoids_8-iso-15kPGF2?_C20H32O5 M+H
PI=Dorrestein/Wu
DATACOLLECTOR=lfnothias
SMILES=n/a
INCHI=n/a
INCHIAUX=N/A
PUBMED=n/a
SUBMITUSER=mwang87
LIBRARYQUALITY=1
SPECTRUMID=CCMSLIB00001058176
SCANS=596
79.054993	176.0
81.071831	541.0
91.05558	1471.0
93.066986	169.0
97.067764	368.0
100.526466	310.0
102.323349	180.0
105.035217	522.0
105.072456	611.0
107.05098	152.0
107.08213	181.0
109.027458	172.0
115.054199	558.0
117.071159	594.0
118.079468	314.0
119.091988	540.0
120.090439	328.0
121.067108	323.0
128.064468	418.0
129.07074	1249.0
130.071472	206.0
131.084152	1879.0
133.065414	614.0
134.074036	224.0
141.069687	480.0
142.076782	677.0
143.058212	98.0
143.0867	1017.0
144.182053	69.0
145.105743	469.0
146.106125	263.0
149.095551	100.0
152.683319	81.0
154.075775	175.0
155.089249	1139.0
156.084747	241.0
157.103882	1045.0
157.128403	129.0
157.453781	173.0
159.082367	172.0
159.114914	392.0
163.107849	114.0
165.071884	80.0
168.096436	130.0
169.104828	100.0
171.118118	610.0
172.121017	233.0
173.098862	377.0
173.137177	189.0
173.363235	153.0
174.099808	207.0
175.07991	204.0
175.112991	341.0
179.110931	137.0
179.150391	112.0
181.076447	256.0
182.026276	144.0
183.117706	531.0
184.122284	382.0
185.096268	539.0
191.136963	97.0
193.09552	164.0
193.121216	201.0
199.128693	259.0
201.101089	182.0
201.128174	767.0
203.108093	191.0
204.11499	102.0
204.313797	61.0
207.140228	492.0
210.108047	97.0
211.098846	91.0
217.166153	349.0
219.14624	214.0
225.123505	129.0
229.119797	257.0
237.161697	128.0
253.155197	194.0
255.105392	139.0
255.169312	148.0
281.168182	273.0
281.192688	330.0
299.207123	972.0
317.213196	937.0
318.214539	246.0
335.213806	262.0
335.381714	182.0
336.231049	152.0
END IONS


BEGIN IONS
PEPMASS=377.232
CHARGE=1
MSLEVEL=2
SOURCE_INSTRUMENT=LC-ESI-Maxis II HD Q-TOF Bruker
FILENAME=JnJ_10uL_B7_GB7_01_2592.mzXML
SEQ=*..*
IONMODE=positive
ORGANISM=GNPS-COLLECTIONS-MISC
NAME=Eicosanoids_ResolvinD1_C22H32O5 M+H
PI=Dorrestein/Wu
DATACOLLECTOR=lfnothias
SMILES=n/a
INCHI=n/a
INCHIAUX=N/A
PUBMED=n/a
SUBMITUSER=mwang87
LIBRARYQUALITY=1
SPECTRUMID=CCMSLIB00001058177
SCANS=738
153.792694	151.0
175.03894	165.0
241.088303	158.0
309.44809	286.0
321.101929	257.0
375.889862	74.0
376.199432	90.0
376.761658	207.0
377.230042	8316.0
377.739319	121.0
377.870697	70.0
378.237823	1605.0
378.529327	59.0
379.616089	52.0
411.208832	130.0
END IONS


BEGIN IONS
PEPMASS=353.232
CHARGE=1
MSLEVEL=2
SOURCE_INSTRUMENT=LC-ESI-Maxis II HD Q-TOF Bruker
FILENAME=JnJ_10uL_B7_GB7_01_2592.mzXML
SEQ=*..*
IONMODE=positive
ORGANISM=GNPS-COLLECTIONS-MISC
NAME=Eicosanoids_15kPGF2?_C20H32O5 M+H
PI=Dorrestein/Wu
DATACOLLECTOR=lfnothias
SMILES=n/a
INCHI=n/a
INCHIAUX=N/A
PUBMED=n/a
SUBMITUSER=mwang87
LIBRARYQUALITY=1
SPECTRUMID=CCMSLIB00001058178
SCANS=629
77.040176	286.0
79.056206	1646.0
80.058853	320.0
81.035728	397.0
81.071114	2240.0
83.436142	241.0
85.050415	100.0
85.062889	410.0
85.103935	61.0
87.04435	136.0
91.054596	5464.0
92.060814	483.0
93.070511	1956.0
94.072189	358.0
95.049004	728.0
95.086884	894.0
97.065041	630.0
97.408607	241.0
98.068581	186.0
99.041924	252.0
99.08168	1155.0
100.084396	105.0
102.872337	138.0
103.053848	256.0
104.061096	437.0
105.045639	534.0
105.071442	5730.0
105.470741	194.0
105.509392	161.0
105.604362	90.0
105.901421	84.0
106.07399	499.0
107.049957	1766.0
107.087036	936.0
109.067154	1684.0
109.101517	237.0
111.044495	133.0
115.010338	222.0
115.054886	645.0
116.062386	337.0
117.048004	447.0
117.071068	8206.0
118.076477	475.0
119.051582	1147.0
119.086967	2008.0
120.057678	334.0
120.091354	266.0
121.067368	712.0
121.100319	332.0
121.471085	184.0
121.684349	174.0
122.108109	322.0
125.095947	194.0
127.079903	80.0
127.115692	443.0
128.063019	1191.0
129.070663	5407.0
129.978531	224.0
130.077667	741.0
130.553543	66.0
131.087143	5069.0
132.086487	325.0
133.066956	3400.0
133.099808	907.0
134.071426	238.0
135.083237	1967.0
135.118805	324.0
136.084702	187.0
136.11882	132.0
137.058151	286.0
137.099167	174.0
141.071411	1795.0
141.092377	354.0
141.127701	173.0
141.769333	138.0
142.028671	199.0
142.078262	2174.0
142.854858	237.0
143.043015	264.0
143.089371	2919.0
144.051788	143.0
144.090668	372.0
144.156723	98.0
145.06665	1502.0
145.105103	1481.0
146.070831	372.0
147.08046	1059.0
147.117325	1319.0
147.274368	227.0
148.094574	252.0
148.121948	363.0
149.056427	270.0
149.096451	162.0
149.138382	333.0
150.099991	79.0
151.080185	591.0
151.115082	2480.0
152.061264	652.0
153.07399	455.0
154.07814	468.0
155.087158	3522.0
155.478714	145.0
156.059921	193.0
157.06543	143.0
157.102493	4611.0
158.078705	314.0
158.108566	494.0
159.082199	2214.0
159.118607	2596.0
160.089523	362.0
161.056335	145.0
161.079315	310.0
161.13443	671.0
162.071396	162.0
162.136963	235.0
163.075577	647.0
165.072708	408.0
165.128998	492.0
166.08197	139.0
167.089432	1571.0
168.09343	955.0
169.064423	140.0
169.103821	285.0
170.108841	251.0
171.083527	502.0
171.118561	486.0
172.089554	151.0
172.120667	106.0
173.095856	1674.0
173.136124	1335.0
174.10556	198.0
174.135818	265.0
174.299515	103.0
174.615326	134.0
175.11145	1390.0
175.154266	178.0
175.500641	67.0
176.115402	417.0
177.094559	460.0
177.126877	495.0
177.641968	226.0
178.08461	184.0
178.174438	214.0
179.088852	386.0
179.112625	267.0
181.104935	332.0
182.108627	478.0
183.083282	273.0
183.119324	1763.0
184.120117	123.0
185.097137	2973.0
185.135605	728.0
186.108322	173.0
187.112732	310.0
187.507187	129.0
189.091385	267.0
189.128128	1493.0
190.134171	213.0
191.090012	198.0
191.105835	204.0
191.145233	1247.0
193.098129	486.0
193.123245	338.0
195.104996	93.0
195.134933	197.0
196.072556	86.0
197.136429	554.0
199.111374	212.0
199.148254	122.0
201.08493	156.0
201.130798	4421.0
202.133972	808.0
203.109207	2116.0
203.144043	775.0
204.118759	446.0
204.15564	177.0
205.104874	153.0
205.162048	978.0
207.121857	791.0
207.138611	795.0
209.130447	156.0
209.156754	119.0
211.113541	505.0
211.15155	154.0
212.120178	207.0
213.16275	221.0
215.108688	311.0
215.143509	1177.0
216.15123	173.0
217.1259	171.0
217.160034	1277.0
218.169067	91.0
219.140732	1841.0
220.114716	160.0
221.168213	305.0
222.055878	174.0
225.129013	767.0
227.187241	149.0
228.121719	187.0
229.128906	294.0
229.16394	174.0
231.137512	121.0
233.123596	249.0
233.154404	1123.0
234.168076	296.0
234.200409	193.0
237.172394	569.0
239.142426	659.0
241.132416	230.0
241.16037	160.0
243.138229	195.0
243.174683	180.0
245.194229	149.0
251.168625	126.0
253.163345	368.0
253.200424	919.0
255.144623	99.0
255.175201	427.0
256.177673	508.0
257.193146	59.0
259.170685	165.0
262.940796	197.0
263.180939	1135.0
264.18219	168.0
266.215729	72.0
271.128632	110.0
271.205139	236.0
273.188721	566.0
274.18811	102.0
281.13913	135.0
281.190002	1000.0
282.192993	316.0
290.197968	205.0
291.197998	191.0
293.223816	224.0
294.251526	125.0
299.205963	3673.0
300.20285	618.0
302.241486	78.0
317.212738	6389.0
318.214111	587.0
320.182617	93.0
320.524689	123.0
335.228912	310.0
336.22702	584.0
374.299255	103.0
850.831238	183.0
1167.310303	262.0
1318.081665	89.0
1466.658447	168.0
END IONS


BEGIN IONS
PEPMASS=375.214
CHARGE=1
MSLEVEL=2
SOURCE_INSTRUMENT=LC-ESI-Maxis II HD Q-TOF Bruker
FILENAME=JnJ_10uL_B7_GB7_01_2592.mzXML
SEQ=*..*
IONMODE=positive
ORGANISM=GNPS-COLLECTIONS-MISC
NAME=Eicosanoids_15kPGF2?_C20H32O5 M+Na
PI=Dorrestein/Wu
DATACOLLECTOR=lfnothias
SMILES=n/a
INCHI=n/a
INCHIAUX=N/A
PUBMED=n/a
SUBMITUSER=mwang87
LIBRARYQUALITY=1
SPECTRUMID=CCMSLIB00001058179
SCANS=632
124.087456	207.0
198.031815	201.0
285.039917	200.0
323.194336	198.0
375.036774	140.0
375.216827	11262.0
375.4664	77.0
376.180328	142.0
376.22226	1802.0
411.152283	299.0
END IONS


BEGIN IONS
PEPMASS=302.305
CHARGE=1
MSLEVEL=2
SOURCE_INSTRUMENT=LC-ESI-qTof
FILENAME=4A3_MixB_5uL_pos_GA3_01_2046.mzXML
SEQ=*..*
IONMODE=Positive
ORGANISM=GNPS-COLLECTIONS-MISC
NAME=sphinganine related molecules M+H
PI=Dorrestein/Wu
DATACOLLECTOR=lfnothias
SMILES= 
INCHI=n/a
INCHIAUX=N/A
PUBMED=n/a
SUBMITUSER=mwang87
LIBRARYQUALITY=1
SPECTRUMID=CCMSLIB00001058181
SCANS=630
75.647873	194.0
76.385323	115.0
76.432808	72.0
77.038826	226.0
77.434654	115.0
79.053856	4331.0
79.170532	123.0
79.554382	103.0
79.957336	229.0
80.055168	500.0
80.286552	218.0
81.069229	15075.0
81.321449	53.0
81.572922	82.0
81.589523	28.0
82.005417	140.0
82.065231	473.0
82.298508	64.0
83.08532	6448.0
83.114304	160.0
83.363228	122.0
83.463921	233.0
84.082275	1708.0
84.265594	222.0
84.573128	199.0
85.067825	518.0
85.099808	498.0
87.84462	67.0
88.07505	538.0
91.055832	483.0
92.05172	220.0
92.697968	63.0
93.06971	3488.0
94.07222	476.0
94.436806	213.0
95.049187	165.0
95.084969	21236.0
95.200035	99.0
95.580055	180.0
96.088058	1201.0
96.30233	204.0
96.6465	97.0
97.101105	2270.0
98.096115	465.0
99.108467	216.0
101.899551	123.0
102.088608	156.0
104.015465	213.0
104.055725	139.0
105.042336	774.0
105.350494	202.0
106.067299	178.0
107.084663	730.0
108.510414	120.0
109.100906	6678.0
110.095169	342.0
110.107368	342.0
111.115669	1401.0
112.118752	185.0
113.096954	178.0
113.210304	83.0
113.860214	138.0
123.082977	422.0
123.115746	1946.0
123.854263	243.0
124.117775	252.0
124.844887	280.0
126.09964	214.0
126.132393	184.0
126.428032	126.0
127.425201	209.0
127.695206	169.0
129.101074	299.0
130.818954	106.0
135.117569	152.0
136.062332	191.0
136.403946	133.0
137.102188	181.0
137.132019	1279.0
137.311417	148.0
138.242981	224.0
138.854553	192.0
141.951065	135.0
146.167526	98.0
150.085861	63.0
150.657303	132.0
151.145279	372.0
156.322968	198.0
158.231781	158.0
159.761856	285.0
161.044968	228.0
161.769272	127.0
161.996323	106.0
165.165192	79.0
165.60379	83.0
168.590805	234.0
170.188202	132.0
170.929382	161.0
180.363937	235.0
180.698959	168.0
184.201447	576.0
185.567566	221.0
187.274429	194.0
190.64386	347.0
191.47641	238.0
191.592682	45.0
191.672852	362.0
193.198059	566.0
193.376358	336.0
194.195343	211.0
196.234772	219.0
198.223022	610.0
198.381729	309.0
200.769714	72.0
205.101761	178.0
207.215485	119.0
208.549973	201.0
209.989807	352.0
211.661026	280.0
212.235092	1166.0
213.246582	214.0
213.922104	220.0
214.085419	240.0
217.748322	232.0
224.239594	176.0
226.20256	247.0
226.252991	194.0
228.630493	298.0
229.436279	112.0
231.86026	133.0
235.277176	68.0
236.232605	183.0
238.245026	305.0
238.855957	58.0
239.236511	331.0
239.775818	216.0
240.175507	127.0
240.269485	4890.0
240.359512	40.0
241.271423	586.0
245.045837	159.0
249.259476	1210.0
250.265686	184.0
250.32222	370.0
251.536026	28.0
252.266586	407.0
252.565384	239.0
252.944641	286.0
253.010391	122.0
253.271866	353.0
253.450256	153.0
253.595932	96.0
253.653046	269.0
254.118546	191.0
254.285263	96333.0
254.355484	50.0
254.493362	59.0
254.535645	72.0
255.216705	242.0
255.287766	10294.0
255.600266	72.0
255.628571	220.0
255.852829	48.0
256.053802	111.0
256.130676	63.0
256.276367	471.0
256.442139	84.0
256.719147	75.0
257.25473	92.0
257.435547	37.0
258.286682	124.0
260.074554	161.0
260.555298	269.0
264.261536	290.0
264.772858	74.0
265.133606	186.0
265.358429	246.0
265.984619	186.0
266.285431	36223.0
266.365173	32.0
266.656464	142.0
266.875488	68.0
267.110443	133.0
267.288605	5836.0
268.311188	116.0
270.366699	120.0
271.088684	219.0
273.430084	184.0
276.221924	131.0
281.273102	88.0
281.672363	64.0
281.965881	108.0
282.230011	74.0
282.345856	131.0
282.47522	61.0
282.743256	140.0
282.970123	258.0
283.038757	62.0
283.159576	131.0
283.207428	105.0
283.28244	399.0
283.386932	55.0
283.435638	154.0
283.489532	83.0
283.544922	90.0
283.610962	118.0
283.696716	114.0
283.718048	143.0
283.821014	209.0
283.885773	241.0
283.931366	184.0
283.988525	139.0
284.030731	565.0
284.075195	225.0
284.161316	197.0
284.295959	333216.0
284.428589	61.0
284.494415	413.0
284.526825	202.0
284.580536	104.0
284.624603	426.0
284.668427	184.0
284.736694	197.0
284.760651	408.0
284.78598	278.0
284.874054	108.0
284.925079	237.0
284.961761	250.0
285.003876	148.0
285.073456	101.0
285.121582	120.0
285.223358	777.0
285.299713	40526.0
285.40155	333.0
285.514221	40.0
285.547852	87.0
285.625366	66.0
285.816681	54.0
285.921417	33.0
285.952271	129.0
286.271423	115.0
286.293396	290.0
286.752686	74.0
286.792511	75.0
286.974884	157.0
287.013092	116.0
287.160095	83.0
287.199768	141.0
287.225739	97.0
287.265289	368.0
287.356964	90.0
287.408295	184.0
287.439911	57.0
287.511322	141.0
287.578949	175.0
287.613525	130.0
287.634949	112.0
287.78717	85.0
288.080688	55.0
288.390564	137.0
289.132935	116.0
291.235046	122.0
295.083008	76.0
295.277374	69.0
295.790283	102.0
295.827637	152.0
296.194336	67.0
296.314575	187.0
296.397675	98.0
296.808136	79.0
297.119995	53.0
298.874359	78.0
298.964752	78.0
299.509155	126.0
299.619507	107.0
299.816223	104.0
300.724213	96.0
300.914856	68.0
301.349457	134.0
301.6297	83.0
301.700012	230.0
302.128479	326.0
302.194122	118.0
302.30661	47158.0
302.398163	48.0
302.559265	36.0
302.585205	76.0
302.640259	54.0
302.695221	29.0
302.798431	101.0
302.916748	204.0
303.099579	63.0
303.215942	44.0
303.308807	5575.0
303.356903	62.0
304.685333	119.0
305.236603	27.0
305.410065	72.0
313.936859	89.0
315.183594	43.0
317.779541	97.0
332.941803	29.0
555.74646	78.0
577.722961	51.0
674.289062	121.0
835.815063	211.0
855.627319	98.0
888.048096	103.0
959.82312	268.0
1263.031372	97.0
1268.298462	267.0
1356.842529	178.0
1398.003174	201.0
1399.834595	251.0
1402.068848	216.0
1429.514771	205.0
1456.187988	154.0
1498.534424	298.0
1501.150635	191.0
1504.677246	85.0
END IONS


BEGIN IONS
PEPMASS=355.248
CHARGE=1
MSLEVEL=2
SOURCE_INSTRUMENT=LC-ESI-Maxis II HD Q-TOF Bruker
FILENAME=JnJ_10uL_B7_GB7_01_2592.mzXML
SEQ=*..*
IONMODE=positive
ORGANISM=GNPS-COLLECTIONS-MISC
NAME=Eicosanoids_13,14-dh15kPGD1_C20H34O5 M+H
PI=Dorrestein/Wu
DATACOLLECTOR=lfnothias
SMILES=n/a
INCHI=n/a
INCHIAUX=N/A
PUBMED=n/a
SUBMITUSER=mwang87
LIBRARYQUALITY=1
SPECTRUMID=CCMSLIB00001058183
SCANS=737
79.057564	871.0
81.071754	489.0
85.327759	267.0
91.057419	853.0
93.071266	1068.0
95.050201	660.0
95.087669	365.0
96.093376	251.0
97.067146	780.0
97.609818	91.0
98.665985	79.0
99.081322	221.0
105.045296	219.0
105.071724	567.0
107.052094	805.0
107.086105	255.0
109.066582	706.0
109.103806	469.0
111.079353	175.0
117.076576	417.0
119.087555	488.0
121.063553	588.0
122.072517	154.0
123.043518	102.0
123.07692	171.0
127.116516	1012.0
128.117569	171.0
131.088104	744.0
132.091873	350.0
133.065735	110.0
133.110641	297.0
135.083282	413.0
135.114792	283.0
139.075897	173.0
139.116028	372.0
144.094131	257.0
145.067352	94.0
145.101288	835.0
146.105057	295.0
147.084854	725.0
147.223434	93.0
148.086182	146.0
149.099152	140.0
149.131424	331.0
151.079422	155.0
151.314941	59.0
153.005997	133.0
154.080902	275.0
159.078323	335.0
159.120117	1018.0
161.093307	170.0
161.135437	518.0
162.097565	222.0
163.112686	234.0
164.124573	237.0
169.104019	518.0
170.106552	143.0
171.116867	331.0
172.084167	218.0
173.138245	265.0
175.10791	262.0
175.153549	247.0
177.020569	146.0
177.129074	610.0
177.773758	97.0
178.129654	102.0
178.169556	216.0
181.103195	248.0
183.117935	117.0
185.134796	617.0
186.140732	255.0
187.11528	609.0
189.129135	248.0
189.168381	199.0
190.132858	54.0
191.147781	84.0
193.12677	1026.0
194.133789	186.0
195.116043	196.0
199.150208	175.0
201.135376	250.0
203.102448	132.0
203.141037	610.0
205.125122	1457.0
206.130447	159.0
207.139587	174.0
209.155731	344.0
217.159546	183.0
221.153702	168.0
223.124069	345.0
225.129608	117.0
228.481155	117.0
233.159286	220.0
235.165558	373.0
241.158813	314.0
241.199631	153.0
249.144943	113.0
255.166733	197.0
255.214493	243.0
259.171906	387.0
259.222626	376.0
263.163605	79.0
273.227692	219.0
277.167236	148.0
277.226807	376.0
283.207397	454.0
285.102264	219.0
288.506012	211.0
291.233307	354.0
300.116882	57.0
301.219086	2318.0
301.970154	67.0
302.223022	446.0
315.345764	91.0
319.148346	170.0
319.229584	8353.0
320.199921	122.0
320.232269	1464.0
320.54248	126.0
323.162476	52.0
337.242035	1151.0
355.246063	356.0
END IONS


BEGIN IONS
PEPMASS=284.294
CHARGE=1
MSLEVEL=2
SOURCE_INSTRUMENT=LC-ESI-Maxis II HD Q-TOF Bruker
FILENAME=4A3_MixB_5uL_pos_GA3_01_2046.mzXML
SEQ=*..*
IONMODE=positive
ORGANISM=GNPS-COLLECTIONS-MISC
NAME=1-desoxymethylsphinganine M-H2O+H
PI=Dorrestein/Wu
DATACOLLECTOR=lfnothias
SMILES=CCCCCCCCCCCCCCC[C@H](CN)O
INCHI=n/a
INCHIAUX=N/A
PUBMED=n/a
SUBMITUSER=mwang87
LIBRARYQUALITY=1
SPECTRUMID=CCMSLIB00001058184
SCANS=1372
81.070305	703.0
83.083191	412.0
84.080711	1148.0
95.067566	148.0
95.085312	207.0
98.096725	844.0
111.114883	142.0
114.294899	157.0
148.446289	291.0
152.109146	127.0
154.165924	75.0
155.158401	104.0
168.185486	200.0
168.985229	151.0
176.83049	291.0
196.207123	164.0
214.833649	154.0
243.477798	50.0
266.281799	1849.0
267.261139	149.0
267.290436	344.0
268.819489	121.0
283.690948	106.0
284.219696	152.0
284.295929	42335.0
284.556671	96.0
285.166168	49.0
285.256622	164.0
285.301117	3352.0
287.089355	139.0
287.369751	182.0
287.494904	76.0
287.539734	90.0
287.880981	71.0
300.891296	49.0
304.304352	156.0
1207.890381	388.0
END IONS


BEGIN IONS
PEPMASS=284.294
CHARGE=1
MSLEVEL=2
SOURCE_INSTRUMENT=LC-ESI-Maxis II HD Q-TOF Bruker
FILENAME=4A11_MixF_5uL_pos_GA11_01_2051.mzXML
SEQ=*..*
IONMODE=positive
ORGANISM=GNPS-COLLECTIONS-MISC
NAME=C18(Plasm)-18:1 PC M-H2O+H
PI=Dorrestein/Wu
DATACOLLECTOR=lfnothias
SMILES=CCCCCCCC/C=C\CCCCCC/C=C\OCC(COP(=O)([O-])OCC[N+](C)(C)C)OC(=O)CCCCCCCCCCCCCCCCC
INCHI=n/a
INCHIAUX=N/A
PUBMED=n/a
SUBMITUSER=mwang87
LIBRARYQUALITY=1
SPECTRUMID=CCMSLIB00001058185
SCANS=1270
83.081352	82.0
84.080704	626.0
96.080635	81.0
97.102959	431.0
98.396606	296.0
111.116661	125.0
167.335999	89.0
196.197357	220.0
215.886154	121.0
224.240463	134.0
266.288391	744.0
282.388245	144.0
282.729156	125.0
284.225616	250.0
284.295563	16535.0
284.672394	59.0
284.704529	56.0
285.299042	1765.0
285.916656	106.0
286.02597	83.0
286.407867	108.0
325.317535	116.0
1464.351562	240.0
END IONS


BEGIN IONS
PEPMASS=862.625
CHARGE=1
MSLEVEL=2
SOURCE_INSTRUMENT=LC-ESI-qTof
FILENAME=4A9_MixE_5uL_pos_GA9_01_2050.mzXML
SEQ=*..*
IONMODE=Positive
ORGANISM=GNPS-COLLECTIONS-MISC
NAME=C16 Lactosyl Ceramide (d18:1/16:0) M+H
PI=Dorrestein/Wu
DATACOLLECTOR=lfnothias
SMILES=[H][C@](/C=C/CCCCCCCCCCCCC)(O)[C@@]([H])(NC(CCCCCCCCCCCCCCC)=O)CO[C@H](O1)[C@H](O)[C@@H](O)[C@@H]([C@H]1CO)O[C@H](O2)[C@H](O)[C@@H](O)[C@H]([C@H]2CO)O
INCHI=n/a
INCHIAUX=N/A
PUBMED=n/a
SUBMITUSER=mwang87
LIBRARYQUALITY=1
SPECTRUMID=CCMSLIB00001058187
SCANS=1180
79.052696	509.0
81.032036	210.0
81.068153	668.0
82.063904	2235.0
82.924263	137.0
83.046448	182.0
83.084114	1569.0
84.077179	202.0
84.194939	91.0
84.457916	100.0
85.027702	2398.0
85.104454	301.0
86.060944	236.0
87.947739	69.0
88.073387	294.0
91.038849	2677.0
92.049324	248.0
93.06826	2142.0
93.957558	283.0
94.064232	282.0
94.4972	179.0
95.084641	2748.0
96.086189	769.0
97.027344	2472.0
97.101295	1973.0
97.132607	52.0
97.599701	269.0
98.096924	85.0
99.040443	402.0
99.117378	273.0
101.019417	205.0
107.087372	387.0
109.026588	958.0
109.098534	1112.0
110.10041	704.0
111.102364	379.0
111.117439	470.0
112.104294	163.0
115.04277	208.0
117.090706	244.0
121.027641	158.0
121.098595	1446.0
121.410088	234.0
122.108383	99.0
123.081238	315.0
123.117264	639.0
124.089874	160.0
124.624573	297.0
127.040543	1402.0
135.116669	971.0
135.202148	143.0
136.114822	235.0
137.06105	270.0
138.121841	150.0
139.115036	155.0
143.683777	65.0
145.05011	1468.0
149.135574	688.0
152.146103	180.0
152.515091	257.0
153.119766	70.0
153.281281	170.0
157.299698	234.0
158.233322	93.0
158.321976	185.0
159.977875	275.0
162.2099	342.0
163.062393	498.0
163.152481	331.0
164.063278	131.0
165.155624	183.0
169.094833	139.0
170.201324	286.0
171.188705	191.0
171.903961	129.0
178.163422	133.0
178.429199	200.0
179.188461	219.0
180.785065	55.0
184.207932	225.0
185.168259	151.0
185.794189	112.0
191.179657	172.0
192.187759	145.0
192.377823	160.0
193.191254	50.0
194.170593	70.0
194.731522	164.0
196.059097	76.0
197.961807	114.0
206.463211	236.0
211.0103	218.0
211.204697	364.0
212.208099	203.0
213.16571	240.0
221.219894	119.0
224.055527	401.0
224.169342	211.0
224.226532	159.0
229.572067	161.0
231.271729	175.0
235.236389	213.0
236.229813	168.0
236.987076	196.0
237.203018	379.0
239.237671	438.0
239.263306	188.0
240.243591	338.0
243.950043	218.0
247.240952	1433.0
248.244476	187.0
248.63591	289.0
251.244492	285.0
251.820709	123.0
252.014038	468.0
252.092621	66.0
252.207336	245.0
252.269073	37862.0
252.42308	50.0
252.811646	76.0
253.271957	7198.0
253.507736	80.0
253.762573	88.0
254.268051	192.0
255.147858	108.0
256.095551	84.0
256.264679	6644.0
257.270416	1910.0
258.221527	144.0
259.242645	230.0
260.162231	113.0
260.235718	111.0
260.259521	164.0
260.989746	327.0
261.033752	252.0
261.402344	119.0
262.145111	62.0
262.23468	293.0
262.282623	176.0
262.539246	144.0
262.747375	171.0
262.914978	82.0
263.091522	77.0
263.242493	70.0
263.357513	135.0
263.502533	220.0
263.592377	141.0
263.62207	204.0
263.747559	170.0
263.816895	197.0
263.947327	71.0
263.97998	166.0
264.027832	87.0
264.085815	195.0
264.119995	509.0
264.269501	330190.0
264.362549	171.0
264.466187	496.0
264.543091	105.0
264.604523	128.0
264.63678	368.0
264.732819	291.0
264.915009	170.0
265.017212	100.0
265.103455	190.0
265.183105	59.0
265.272675	56987.0
265.352905	213.0
265.842834	121.0
266.278534	4119.0
266.367157	53.0
266.438599	160.0
266.56604	79.0
266.710358	163.0
266.856689	166.0
266.928894	431.0
267.017731	231.0
267.091095	277.0
267.177368	266.0
267.253204	254.0
267.287872	209.0
267.313263	272.0
267.374542	202.0
267.553955	93.0
267.946564	72.0
268.031555	91.0
268.259094	165.0
272.201843	151.0
274.511932	122.0
275.587494	160.0
276.121887	111.0
280.216827	188.0
280.262787	746.0
280.728943	56.0
280.917267	78.0
281.293793	98.0
281.828186	224.0
281.981476	151.0
282.012207	95.0
282.216309	279.0
282.28009	51506.0
282.456207	109.0
282.50528	72.0
282.567505	56.0
282.791931	251.0
283.211365	151.0
283.238678	366.0
283.281738	8214.0
283.980164	186.0
284.286194	454.0
284.460754	120.0
284.818756	52.0
285.003204	168.0
285.238464	73.0
285.34256	81.0
286.057861	50.0
286.702057	92.0
291.277161	176.0
295.714355	85.0
299.55011	60.0
302.290344	142.0
302.40567	211.0
304.295624	93.0
306.280182	168.0
307.265228	102.0
307.572174	293.0
321.299347	103.0
322.230591	186.0
336.290771	97.0
339.7099	207.0
344.302704	166.0
344.349304	159.0
348.30072	82.0
350.615448	196.0
351.818146	356.0
358.105011	246.0
361.638123	79.0
362.433319	251.0
367.710999	135.0
368.725708	189.0
384.278717	112.0
386.382843	223.0
390.568481	127.0
401.298645	215.0
418.393524	174.0
419.334656	193.0
424.16571	123.0
425.486847	102.0
426.278168	100.0
438.021179	96.0
444.335663	230.0
445.31778	241.0
453.159668	323.0
469.771667	129.0
473.476257	143.0
478.667969	190.0
478.96756	233.0
488.862488	68.0
489.17746	211.0
490.500916	5448.0
491.031281	91.0
491.506195	1203.0
491.549622	364.0
492.535126	343.0
500.191956	71.0
501.707703	112.0
502.500977	19448.0
502.602936	53.0
502.727203	331.0
502.831696	229.0
503.052673	105.0
503.080017	164.0
503.154633	120.0
503.437256	179.0
503.506653	5329.0
503.60614	174.0
504.248291	131.0
504.440002	156.0
504.516876	3558.0
505.52359	900.0
506.509521	154.0
506.546265	232.0
507.527802	117.0
510.556274	79.0
513.630005	98.0
514.45343	118.0
515.45874	89.0
515.64801	121.0
516.837646	61.0
517.20697	63.0
517.384949	89.0
517.611206	165.0
517.731384	125.0
517.776123	90.0
518.488098	59.0
519.372498	219.0
519.440308	137.0
519.730286	74.0
519.943176	165.0
520.197266	56.0
520.356079	877.0
520.407959	677.0
520.511719	116445.0
520.629333	224.0
520.853943	108.0
520.936462	206.0
521.07782	102.0
521.130005	81.0
521.191528	109.0
521.300232	89.0
521.334717	371.0
521.514099	34482.0
521.690552	103.0
521.799683	204.0
521.890442	92.0
522.225098	158.0
522.52063	4404.0
522.809021	202.0
523.272034	126.0
523.326477	80.0
523.532043	129.0
524.084167	61.0
524.353577	88.0
524.464233	98.0
524.625854	60.0
524.764648	284.0
524.824524	96.0
525.314636	71.0
525.55426	84.0
530.204651	59.0
537.46521	70.0
537.538452	97.0
538.517212	2330.0
539.527832	1253.0
548.525818	117.0
556.599304	90.0
563.520203	188.0
565.51886	124.0
574.669556	198.0
576.38446	141.0
592.541199	101.0
606.375305	114.0
682.561462	2762.0
683.577209	1517.0
684.559998	193.0
700.547241	222.0
763.455322	143.0
780.03241	170.0
796.953125	104.0
817.47583	119.0
819.605103	76.0
844.035828	78.0
844.279968	89.0
844.506042	944.0
844.616943	28173.0
845.217285	101.0
845.623474	11698.0
846.611816	2818.0
846.768616	159.0
847.246826	105.0
847.66571	116.0
849.623108	77.0
851.113342	106.0
862.584412	119.0
862.633545	355.0
862.804749	328.0
884.164307	322.0
933.590271	137.0
1315.37561	308.0
1461.523315	55.0
END IONS


BEGIN IONS
PEPMASS=303.232
CHARGE=1
MSLEVEL=2
SOURCE_INSTRUMENT=LC-ESI-Maxis II HD Q-TOF Bruker
FILENAME=JnJ_10uL_A1_GA1_01_2571.mzXML
SEQ=*..*
IONMODE=positive
ORGANISM=GNPS-COLLECTIONS-MISC
NAME=Eicosanoids_EPA_C20H30O2 M+H
PI=Dorrestein/Wu
DATACOLLECTOR=lfnothias
SMILES=n/a
INCHI=InChI=1S/C20H30O2/c1-2-3-4-5-6-7-8-9-10-11-12-13-14-15-16-17-18-19-20(21)22/h3-4,6-7,9-10,12-13,15-16H,2,5,8,11,14,17-19H2,1H3,(H,21,22)/b4-3-,7-6-,10-9-,13-12-,16-15-
INCHIAUX=N/A
PUBMED=n/a
SUBMITUSER=mwang87
LIBRARYQUALITY=1
SPECTRUMID=CCMSLIB00001058188
SCANS=1189
79.051582	319.0
81.071793	299.0
91.055016	1082.0
93.071434	905.0
94.075645	132.0
95.090912	434.0
105.070908	857.0
106.07267	132.0
107.084854	827.0
109.100334	206.0
117.071495	186.0
119.057587	141.0
119.085915	677.0
120.086006	120.0
121.099091	247.0
123.113274	131.0
129.065445	174.0
131.068863	220.0
132.093597	95.0
133.10582	259.0
134.057083	119.0
135.117477	269.0
142.073929	162.0
146.104095	152.0
147.116852	433.0
149.097244	173.0
159.115616	871.0
161.127975	545.0
163.111389	133.0
167.109482	107.0
175.149658	266.0
183.120789	123.0
189.131973	462.0
189.166061	182.0
195.140778	179.0
203.164017	129.0
209.160782	219.0
215.139374	247.0
219.143112	172.0
229.156555	134.0
233.15593	186.0
239.181259	169.0
257.190399	136.0
303.142639	157.0
303.230743	602.0
END IONS


BEGIN IONS
PEPMASS=336.253
CHARGE=1
MSLEVEL=2
SOURCE_INSTRUMENT=LC-ESI-Maxis II HD Q-TOF Bruker
FILENAME=JnJ_10uL_A6_GA6_01_2576.mzXML
SEQ=*..*
IONMODE=positive
ORGANISM=GNPS-COLLECTIONS-MISC
NAME=Eicosanoids_18-HEPE_C20H30O3 M+NH4
PI=Dorrestein/Wu
DATACOLLECTOR=lfnothias
SMILES=n/a
INCHI=InChI=1S/C20H30O3/c1-2-19(21)17-15-13-11-9-7-5-3-4-6-8-10-12-14-16-18-20(22)23/h4-7,10-13,15,17,19,21H,2-3,8-9,14,16,18H2,1H3,(H,22,23)/b6-4-,7-5-,12-10-,13-11-,17-15+/t19-/m1/s1
INCHIAUX=N/A
PUBMED=n/a
SUBMITUSER=mwang87
LIBRARYQUALITY=1
SPECTRUMID=CCMSLIB00001058189
SCANS=1259
79.460373	207.0
80.068581	213.0
80.448776	143.0
81.070526	242.0
82.041718	204.0
83.087204	166.0
85.030907	244.0
90.08474	262.0
91.052757	145.0
93.067162	213.0
94.064804	537.0
95.088623	157.0
96.045151	278.0
97.338104	201.0
99.071281	125.0
105.06942	600.0
106.063309	253.0
107.048515	161.0
107.071175	319.0
108.051315	261.0
108.08313	1111.0
109.065521	1165.0
109.101791	2088.0
110.059479	521.0
110.097298	1131.0
111.079987	637.0
111.100311	380.0
115.273537	65.0
119.088737	450.0
120.005264	297.0
120.034393	154.0
120.087845	217.0
121.103844	472.0
123.046181	98.0
123.073586	239.0
124.074089	179.0
125.082024	312.0
126.12896	153.0
127.042694	287.0
127.906944	191.0
131.382172	71.0
133.139343	113.0
134.064743	431.0
135.055527	155.0
136.076691	558.0
136.113983	1249.0
136.270538	82.0
137.081314	241.0
137.096405	349.0
138.133652	166.0
141.055893	94.0
148.077072	144.0
149.083679	136.0
149.57373	277.0
150.012115	190.0
150.044113	195.0
150.092819	11708.0
151.09639	1474.0
151.684601	66.0
151.96402	128.0
152.108002	6955.0
152.520737	85.0
153.056	198.0
153.079346	397.0
153.112091	453.0
153.798233	100.0
154.048126	227.0
154.086899	1130.0
154.118912	319.0
154.37886	108.0
155.061295	194.0
155.125656	147.0
162.060455	212.0
164.106491	1962.0
164.146805	245.0
165.092911	413.0
167.091965	148.0
169.048798	232.0
177.0793	80.0
178.125595	384.0
179.125214	300.0
180.063065	267.0
180.328644	246.0
182.115936	1013.0
183.117599	111.0
184.635452	81.0
192.999374	248.0
193.257309	203.0
194.082825	4547.0
194.114655	157.0
195.046524	161.0
195.089417	13415.0
195.147095	86.0
196.095703	1316.0
197.100815	244.0
197.715454	159.0
206.110718	117.0
207.656769	213.0
209.10556	562.0
210.113083	246.0
222.285614	114.0
223.131561	136.0
223.691757	210.0
223.711639	256.0
223.965332	119.0
224.030807	349.0
224.129013	61786.0
224.186722	222.0
224.333099	111.0
224.376556	207.0
224.564957	328.0
224.654556	59.0
224.865265	133.0
225.032745	79.0
225.131485	5960.0
225.440079	83.0
226.514496	99.0
226.646667	106.0
226.80423	191.0
226.912262	115.0
227.255325	55.0
228.601105	111.0
233.845566	73.0
281.023743	231.0
308.213806	255.0
335.037384	80.0
335.288849	311.0
335.809631	287.0
336.130615	166.0
336.254944	61658.0
337.184692	123.0
337.259338	8457.0
337.928314	96.0
339.390961	61.0
339.455505	172.0
339.500122	117.0
339.562439	146.0
339.607422	69.0
340.687134	91.0
792.805176	87.0
854.168091	67.0
989.491821	87.0
1369.586426	69.0
END IONS


BEGIN IONS
PEPMASS=884.607
CHARGE=1
MSLEVEL=2
SOURCE_INSTRUMENT=LC-ESI-Maxis II HD Q-TOF Bruker
FILENAME=4A9_MixE_5uL_pos_GA9_01_2050.mzXML
SEQ=*..*
IONMODE=positive
ORGANISM=GNPS-COLLECTIONS-MISC
NAME=C16 Galactosyl() Ceramide (d18:1/16:0) M+Na
PI=Dorrestein/Wu
DATACOLLECTOR=lfnothias
SMILES=CCCCCCCCCCCCC/C=C/[C@H]([C@H](CO[C@@H]1[C@@H]([C@H]([C@H]([C@@H](CO)O1)O)O)O)N=C(CCCCCCCCCCCCCCC)O)O
INCHI=n/a
INCHIAUX=N/A
PUBMED=n/a
SUBMITUSER=mwang87
LIBRARYQUALITY=1
SPECTRUMID=CCMSLIB00001058190
SCANS=1190
173.024933	185.0
181.123047	170.0
185.041199	387.0
201.030487	138.0
203.051254	59.0
204.064194	292.0
213.156708	221.0
259.07843	147.0
305.087219	469.0
306.072113	92.0
345.834595	88.0
347.046692	190.0
347.094116	2759.0
364.756348	98.0
364.791931	119.0
365.059387	235.0
365.104736	2244.0
365.61557	130.0
510.988647	247.0
522.5979	133.0
537.227417	81.0
543.485535	148.0
559.585266	75.0
560.456726	145.0
560.517456	213.0
585.346252	79.0
610.84845	236.0
646.382935	175.0
722.210449	91.0
722.389099	187.0
722.558655	4817.0
723.467407	160.0
723.546509	863.0
724.229858	147.0
724.564575	332.0
727.004944	156.0
729.010681	265.0
748.750305	173.0
772.223633	56.0
815.653748	133.0
822.536987	170.0
852.891907	229.0
864.225952	66.0
867.591125	169.0
869.259583	60.0
879.124573	69.0
880.612	170.0
881.098389	129.0
882.031311	305.0
882.366577	201.0
882.432495	98.0
882.905396	155.0
883.614929	159.0
884.210266	133.0
884.278748	298.0
884.365906	157.0
884.610718	61145.0
884.862305	248.0
884.94812	204.0
885.006348	63.0
885.274231	400.0
885.435669	198.0
885.614441	25233.0
885.783142	144.0
886.030151	127.0
886.615234	5294.0
887.027222	67.0
887.328613	87.0
887.492615	151.0
887.593445	418.0
887.653137	227.0
888.152954	167.0
888.513367	64.0
889.361755	60.0
890.879456	212.0
891.203552	114.0
893.825256	96.0
895.04126	91.0
905.552673	110.0
1253.724487	135.0
1321.079468	229.0
1327.002319	166.0
1336.722168	138.0
1339.625244	131.0
1374.447876	190.0
1462.548096	191.0
END IONS


BEGIN IONS
PEPMASS=540.535
CHARGE=1
MSLEVEL=2
SOURCE_INSTRUMENT=LC-ESI-Maxis II HD Q-TOF Bruker
FILENAME=4A7_MixD_5uL_pos_GA7_01_2048.mzXML
SEQ=*..*
IONMODE=positive
ORGANISM=GNPS-COLLECTIONS-MISC
NAME=18:1(2S-OH) Ceramide M+H
PI=Dorrestein/Wu
DATACOLLECTOR=lfnothias
SMILES=n/a
INCHI=n/a
INCHIAUX=N/A
PUBMED=n/a
SUBMITUSER=mwang87
LIBRARYQUALITY=1
SPECTRUMID=CCMSLIB00001058191
SCANS=1547
78.055153	116.0
79.054436	676.0
81.068436	5754.0
81.165039	217.0
82.074821	405.0
82.342987	58.0
83.085045	4292.0
83.374763	134.0
83.663437	96.0
83.893417	136.0
84.080704	993.0
85.061653	627.0
85.09951	1684.0
85.391342	127.0
85.984467	104.0
86.105499	394.0
87.007172	229.0
88.072159	1088.0
89.067123	119.0
89.328224	214.0
89.76152	146.0
91.553398	332.0
93.070419	329.0
94.936768	84.0
95.085396	13224.0
95.36425	132.0
95.568039	185.0
96.067978	181.0
96.089478	1120.0
97.06955	145.0
97.100433	4261.0
97.479347	104.0
98.094551	336.0
98.146194	318.0
99.118088	190.0
101.174904	237.0
101.274506	291.0
102.091484	1792.0
102.583435	202.0
105.042213	155.0
109.100403	6268.0
109.345116	85.0
110.103409	859.0
111.116005	1167.0
112.110497	201.0
112.834793	90.0
114.089172	602.0
116.104958	701.0
121.09874	118.0
123.114059	1767.0
124.119652	603.0
125.112801	217.0
125.13385	131.0
126.340218	173.0
127.70993	237.0
132.981064	93.0
137.132599	677.0
140.842529	101.0
141.125046	223.0
142.158691	184.0
143.086044	97.0
144.048035	300.0
144.13916	125.0
148.236053	325.0
149.072525	265.0
149.987656	224.0
151.145844	458.0
152.144272	165.0
158.157516	375.0
165.163391	114.0
166.156326	135.0
170.117874	159.0
170.1931	169.0
179.18129	134.0
180.183044	284.0
182.19548	103.0
184.166977	193.0
186.181641	382.0
186.799118	334.0
191.74617	328.0
198.222214	233.0
199.454117	299.0
200.020538	266.0
200.200699	297.0
203.227173	185.0
207.170151	70.0
207.209793	249.0
209.572754	168.0
212.230331	441.0
212.858765	208.0
215.228943	194.0
215.40477	273.0
222.227142	133.0
224.233124	122.0
224.393417	72.0
228.230347	157.0
229.769028	302.0
230.615601	104.0
238.25354	556.0
238.767395	332.0
239.021912	231.0
239.241455	530.0
240.268677	1808.0
240.55838	82.0
240.626801	124.0
241.082901	133.0
241.269882	125.0
241.702545	107.0
247.52182	131.0
249.257996	370.0
252.268188	1174.0
254.285187	14868.0
255.288239	1497.0
256.015289	336.0
256.154297	224.0
256.264771	56847.0
257.267517	7513.0
257.851074	238.0
258.106995	190.0
258.252533	148.0
258.276245	120.0
258.833923	61.0
259.293549	99.0
259.496765	125.0
260.329773	210.0
262.506104	116.0
265.18808	70.0
265.267853	437.0
265.901306	60.0
265.928772	113.0
266.024017	227.0
266.151398	304.0
266.213989	152.0
266.284607	52338.0
266.347626	116.0
266.467438	86.0
266.687561	90.0
267.175842	114.0
267.290405	9488.0
267.608765	121.0
268.266937	140.0
268.311981	282.0
269.287476	123.0
269.595825	114.0
269.890137	144.0
274.271057	294.0
275.268921	134.0
275.551483	190.0
280.229492	124.0
280.262451	1454.0
281.271179	142.0
282.285248	644.0
282.461365	326.0
283.804321	175.0
283.919922	205.0
283.971313	209.0
284.166168	358.0
284.296173	73510.0
284.566925	170.0
284.697723	167.0
285.138184	52.0
285.30014	13398.0
285.639832	60.0
285.991364	147.0
286.256226	96.0
286.30011	698.0
287.007629	77.0
287.373108	169.0
287.405396	295.0
287.542969	150.0
288.461914	106.0
288.702576	114.0
295.269562	120.0
296.390564	180.0
297.290558	392.0
298.160614	185.0
298.270172	334.0
300.281403	293.0
300.972717	72.0
302.235352	304.0
302.306061	17221.0
302.399017	295.0
302.570679	89.0
302.732361	60.0
302.933899	56.0
303.310089	2249.0
304.832092	221.0
308.28125	125.0
319.533325	135.0
326.813721	193.0
356.957886	201.0
393.491699	148.0
398.355133	124.0
405.750702	184.0
405.813873	189.0
410.205872	130.0
428.159607	184.0
447.474762	88.0
455.079376	84.0
459.27536	67.0
476.540436	239.0
478.523468	114.0
487.657684	55.0
490.473206	171.0
493.212616	103.0
503.362366	93.0
504.412598	328.0
504.515106	12107.0
505.411621	67.0
505.517792	3221.0
508.990021	52.0
509.318268	50.0
514.919739	226.0
515.924927	295.0
516.152405	117.0
516.600464	72.0
517.897095	82.0
518.082825	57.0
518.500977	283.0
518.724731	182.0
518.96759	58.0
519.170959	74.0
519.304504	138.0
519.712341	206.0
519.965698	56.0
520.119812	48.0
520.402954	176.0
520.999573	142.0
521.125183	146.0
521.257568	169.0
521.645508	210.0
521.952332	218.0
522.033997	241.0
522.105896	144.0
522.208862	109.0
522.274536	387.0
522.313599	236.0
522.419678	1484.0
522.526855	155763.0
522.653076	243.0
522.722473	172.0
522.940308	143.0
523.149292	184.0
523.347168	329.0
523.397705	293.0
523.531067	47275.0
523.664246	181.0
523.784668	186.0
523.848328	83.0
524.004395	91.0
524.083435	61.0
524.449402	77.0
524.531555	1285.0
524.594238	339.0
524.682983	50.0
524.927979	57.0
525.06311	63.0
525.374084	141.0
525.523193	110.0
525.967712	105.0
526.080994	177.0
526.380737	271.0
526.434814	59.0
526.659241	78.0
527.001282	50.0
527.514099	162.0
527.574524	81.0
527.726501	57.0
527.851196	88.0
527.914246	125.0
535.287048	82.0
538.394409	89.0
538.491394	52.0
538.862793	82.0
538.989136	63.0
539.546082	156.0
539.593506	427.0
540.189026	201.0
540.421448	346.0
540.537903	26130.0
540.669373	302.0
540.833618	161.0
541.14624	98.0
541.488892	178.0
541.542603	7203.0
542.160339	57.0
542.427612	110.0
542.545044	469.0
542.794617	92.0
544.842468	79.0
545.413574	104.0
545.487305	107.0
545.691528	107.0
545.887146	129.0
565.78656	74.0
583.224243	66.0
585.16687	116.0
586.140381	97.0
601.425659	53.0
605.859985	121.0
645.155273	173.0
667.292236	64.0
1215.764282	262.0
1235.03894	53.0
1311.352783	255.0
1363.935547	236.0
1408.996338	168.0
END IONS


BEGIN IONS
PEPMASS=365.268
CHARGE=1
MSLEVEL=2
SOURCE_INSTRUMENT=LC-ESI-Maxis II HD Q-TOF Bruker
FILENAME=JnJ_10uL_A6_GA6_01_2576.mzXML
SEQ=*..*
IONMODE=positive
ORGANISM=GNPS-COLLECTIONS-MISC
NAME=Eicosanoids_dihomoPGF2?_C22H38O5 M-H2O+H
PI=Dorrestein/Wu
DATACOLLECTOR=lfnothias
SMILES=n/a
INCHI=n/a
INCHIAUX=N/A
PUBMED=n/a
SUBMITUSER=mwang87
LIBRARYQUALITY=1
SPECTRUMID=CCMSLIB00001058192
SCANS=690
77.037666	217.0
79.05397	1665.0
81.031639	137.0
81.070244	693.0
82.072533	184.0
83.04966	130.0
89.879768	319.0
91.054535	4529.0
91.877251	242.0
92.03199	256.0
93.069923	1290.0
94.072151	234.0
95.053566	140.0
95.085854	1575.0
96.693329	58.0
97.044365	238.0
99.08239	163.0
101.062271	251.0
105.047234	643.0
105.069031	3432.0
106.077293	295.0
106.989807	160.0
107.087494	1169.0
108.092239	180.0
109.06562	173.0
109.097267	625.0
115.055519	388.0
115.075569	369.0
116.589073	87.0
117.07151	1830.0
119.05735	276.0
119.087021	4221.0
121.066544	618.0
121.101669	411.0
122.107735	379.0
125.057594	328.0
127.112213	170.0
128.063034	407.0
129.039307	328.0
129.07132	2119.0
130.079163	920.0
131.036972	175.0
131.086868	4140.0
132.090088	714.0
133.064545	232.0
133.10257	1054.0
135.116989	342.0
136.123428	283.0
137.133957	189.0
141.073639	738.0
142.07962	869.0
143.085434	2244.0
144.092194	967.0
145.102066	3203.0
146.103699	342.0
147.082184	831.0
147.118652	1112.0
148.088745	181.0
149.09819	477.0
149.13591	331.0
150.140656	223.0
155.06073	152.0
155.088913	390.0
156.089386	290.0
157.101028	883.0
158.074402	159.0
158.106445	459.0
159.117661	324.0
159.187027	237.0
161.134811	983.0
163.11261	300.0
165.154297	235.0
167.087402	276.0
169.103531	733.0
171.062439	63.0
171.117905	546.0
172.127335	156.0
173.097412	86.0
173.134125	860.0
174.132034	170.0
175.112152	173.0
175.149567	284.0
176.155823	256.0
177.126816	311.0
177.155457	71.0
179.131577	159.0
181.102203	300.0
182.108032	145.0
183.11821	246.0
185.135193	354.0
186.144287	257.0
187.114319	437.0
187.146454	235.0
188.151627	486.0
189.109787	253.0
189.163879	131.0
191.082123	256.0
191.180557	165.0
193.125641	200.0
194.158371	216.0
195.112549	126.0
197.143402	325.0
200.159195	240.0
201.165665	1348.0
201.512589	67.0
203.140839	194.0
203.182419	584.0
205.155502	266.0
207.135101	225.0
210.156479	79.0
213.130905	170.0
215.13562	124.0
215.179047	121.0
216.175995	120.0
217.133057	226.0
217.160339	230.0
219.138641	304.0
220.144791	179.0
220.219482	210.0
223.147705	277.0
223.234573	139.0
226.177887	208.0
227.141891	791.0
227.181259	584.0
228.134384	187.0
231.139053	1048.0
231.174774	351.0
232.131592	125.0
233.231934	169.0
235.174103	283.0
239.179428	166.0
240.164124	388.0
241.159866	308.0
241.194382	174.0
242.869614	215.0
244.144775	92.0
245.151428	165.0
245.186905	111.0
246.19725	134.0
247.165115	98.0
249.191177	197.0
251.175583	106.0
251.208221	116.0
252.609589	105.0
255.177795	388.0
257.22464	130.0
258.031311	55.0
261.187988	480.0
263.19928	337.0
267.205994	613.0
269.221893	84.0
273.190826	337.0
275.232452	128.0
283.221649	146.0
284.249359	201.0
285.238373	153.0
287.19342	82.0
289.221191	146.0
291.191162	250.0
292.23642	76.0
293.193451	134.0
293.25415	955.0
296.873932	115.0
301.248993	118.0
302.252258	184.0
303.230591	1007.0
304.22818	146.0
305.167725	162.0
305.255676	338.0
305.687164	292.0
306.247864	376.0
311.239288	1591.0
312.242462	139.0
317.250244	133.0
319.270782	781.0
320.264374	352.0
321.250061	158.0
325.817017	218.0
328.27182	54.0
329.248962	10328.0
329.583038	115.0
330.260895	503.0
347.260376	2552.0
348.234863	201.0
348.262421	571.0
350.368866	115.0
350.821777	106.0
365.269043	347.0
1492.985474	275.0
END IONS


BEGIN IONS
PEPMASS=405.261
CHARGE=1
MSLEVEL=2
SOURCE_INSTRUMENT=LC-ESI-Maxis II HD Q-TOF Bruker
FILENAME=JnJ_10uL_A6_GA6_01_2576.mzXML
SEQ=*..*
IONMODE=positive
ORGANISM=GNPS-COLLECTIONS-MISC
NAME=Eicosanoids_dihomoPGF2?_C22H38O5 M+Na
PI=Dorrestein/Wu
DATACOLLECTOR=lfnothias
SMILES=n/a
INCHI=n/a
INCHIAUX=N/A
PUBMED=n/a
SUBMITUSER=mwang87
LIBRARYQUALITY=1
SPECTRUMID=CCMSLIB00001058193
SCANS=692
78.152435	149.0
118.038109	230.0
129.075668	127.0
151.046371	160.0
154.073639	122.0
154.091904	172.0
173.582581	364.0
181.245926	251.0
186.593338	136.0
192.079376	110.0
193.087387	150.0
201.163696	175.0
208.125214	150.0
227.215378	170.0
285.731018	287.0
296.865082	125.0
329.248322	127.0
370.242645	104.0
387.206146	115.0
387.250854	824.0
388.244995	122.0
388.314728	178.0
392.09436	113.0
401.347412	102.0
401.857056	157.0
402.645721	100.0
405.263	15548.0
405.538086	78.0
405.663666	213.0
405.992523	138.0
406.268158	2888.0
406.814545	121.0
407.091858	160.0
407.130249	207.0
407.264984	156.0
END IONS


BEGIN IONS
PEPMASS=305.247
CHARGE=1
MSLEVEL=2
SOURCE_INSTRUMENT=LC-ESI-Maxis II HD Q-TOF Bruker
FILENAME=JnJ_10uL_A6_GA6_01_2576.mzXML
SEQ=*..*
IONMODE=positive
ORGANISM=GNPS-COLLECTIONS-MISC
NAME=Eicosanoids_5-HETrE_C20H34O3 M-H2O+H
PI=Dorrestein/Wu
DATACOLLECTOR=lfnothias
SMILES=n/a
INCHI=InChI=1S/C20H34O3/c1-2-3-4-5-6-7-8-9-10-11-12-13-14-16-19(21)17-15-18-20(22)23/h9-10,12-14,16,19,21H,2-8,11,15,17-18H2,1H3,(H,22,23)/b10-9-,13-12-,16-14+
INCHIAUX=N/A
PUBMED=n/a
SUBMITUSER=mwang87
LIBRARYQUALITY=1
SPECTRUMID=CCMSLIB00001058194
SCANS=1263
79.055779	481.0
81.069901	198.0
85.064392	189.0
91.053345	329.0
93.070061	513.0
93.100761	214.0
95.087914	176.0
105.046257	474.0
105.073837	275.0
107.085861	903.0
115.053596	70.0
116.063835	119.0
117.074524	158.0
119.089157	874.0
121.10569	139.0
128.063278	156.0
131.088684	129.0
133.064316	258.0
133.101624	346.0
135.08371	187.0
135.119293	185.0
138.133148	143.0
147.117233	133.0
148.119293	168.0
149.096848	214.0
150.13678	167.0
151.113907	177.0
151.154404	255.0
159.106735	84.0
161.094025	163.0
161.135284	438.0
172.121567	303.0
175.149231	163.0
177.167725	151.0
189.125427	316.0
191.17836	274.0
193.129929	345.0
195.141617	101.0
201.933823	109.0
203.468597	149.0
207.138153	359.0
232.076584	101.0
235.172104	114.0
243.209534	143.0
287.234344	514.0
305.082489	129.0
305.221558	173.0
305.249512	489.0
306.267151	184.0
END IONS


BEGIN IONS
PEPMASS=319.226
CHARGE=1
MSLEVEL=2
SOURCE_INSTRUMENT=LC-ESI-Maxis II HD Q-TOF Bruker
FILENAME=JnJ_10uL_B1_GB1_01_2585.mzXML
SEQ=*..*
IONMODE=positive
ORGANISM=GNPS-COLLECTIONS-MISC
NAME=Eicosanoids_PGA1_C20H32O4 M-H2O+H
PI=Dorrestein/Wu
DATACOLLECTOR=lfnothias
SMILES=n/a
INCHI=InChI=1S/C20H32O4/c1-2-3-6-9-17(21)14-12-16-13-15-19(22)18(16)10-7-4-5-8-11-20(23)24/h12-18,21H,2-11H2,1H3,(H,23,24)/b14-12+/t16-,17-,18+/m0/s1
INCHIAUX=N/A
PUBMED=n/a
SUBMITUSER=mwang87
LIBRARYQUALITY=1
SPECTRUMID=CCMSLIB00001058197
SCANS=758
75.97612	81.0
79.052574	321.0
81.06884	336.0
82.074852	222.0
83.05162	429.0
85.070679	187.0
91.056053	859.0
92.056862	581.0
93.071259	1339.0
95.052666	220.0
95.085655	243.0
96.054298	146.0
96.090073	197.0
103.054169	371.0
104.060791	497.0
105.046394	446.0
105.070602	1890.0
107.048965	123.0
108.09198	399.0
109.103569	334.0
110.775009	407.0
112.311951	81.0
115.056854	342.0
116.061806	191.0
117.073502	1267.0
118.080437	271.0
119.050858	324.0
119.086136	1270.0
120.052559	197.0
120.091484	194.0
121.068497	585.0
122.102699	235.0
128.066757	222.0
128.988922	135.0
129.071945	1446.0
129.311264	130.0
131.086197	1081.0
132.056458	180.0
132.090561	225.0
133.065125	1461.0
134.070084	370.0
135.079071	95.0
135.116806	156.0
141.066299	204.0
143.088348	686.0
144.094223	230.0
145.106934	410.0
147.082581	1188.0
147.125183	254.0
148.077774	128.0
149.058945	91.0
149.135635	208.0
153.080353	186.0
155.088837	146.0
156.089966	284.0
157.065475	197.0
157.103439	241.0
158.384201	121.0
160.092728	187.0
161.060837	95.0
161.095932	77.0
161.134079	728.0
163.117401	407.0
165.12677	136.0
171.120361	421.0
173.132614	477.0
176.147141	221.0
178.129807	145.0
179.108139	120.0
182.111389	159.0
185.131256	406.0
187.117538	405.0
189.119095	114.0
189.160614	113.0
190.175034	226.0
191.14476	671.0
194.108566	143.0
195.122177	195.0
197.139282	160.0
199.148972	251.0
200.145111	93.0
203.141815	744.0
204.151428	327.0
209.135544	133.0
213.129913	502.0
213.169647	197.0
227.152725	205.0
236.823532	209.0
237.164368	74.0
241.195419	196.0
255.176025	271.0
257.223785	194.0
259.204041	326.0
273.224091	772.0
274.237091	305.0
279.088715	134.0
283.204956	481.0
301.214111	3433.0
302.220947	196.0
1224.828247	54.0
1324.19104	150.0
END IONS


BEGIN IONS
PEPMASS=335.222
CHARGE=1
MSLEVEL=2
SOURCE_INSTRUMENT=LC-ESI-Maxis II HD Q-TOF Bruker
FILENAME=JnJ_10uL_A3_GA3_01_2573.mzXML
SEQ=*..*
IONMODE=positive
ORGANISM=GNPS-COLLECTIONS-MISC
NAME=Eicosanoids_PGB2_C20H30O4 M+H
PI=Dorrestein/Wu
DATACOLLECTOR=lfnothias
SMILES=n/a
INCHI=InChI=1S/C20H30O4/c1-2-3-6-9-17(21)14-12-16-13-15-19(22)18(16)10-7-4-5-8-11-20(23)24/h4,7,12,14,17,21H,2-3,5-6,8-11,13,15H2,1H3,(H,23,24)/b7-4-,14-12+/t17-/m0/s1
INCHIAUX=N/A
PUBMED=n/a
SUBMITUSER=mwang87
LIBRARYQUALITY=1
SPECTRUMID=CCMSLIB00001058198
SCANS=746
79.057587	558.0
80.070915	69.0
81.072601	220.0
82.07708	306.0
83.050728	683.0
91.054901	4255.0
92.056625	410.0
93.018227	52.0
93.071014	1152.0
95.0522	526.0
95.088402	273.0
96.058441	160.0
96.639389	57.0
97.065659	201.0
99.082161	224.0
103.054703	704.0
105.045013	406.0
105.070923	1545.0
106.075432	323.0
107.048744	543.0
107.087524	304.0
109.065552	362.0
109.101921	274.0
115.05127	489.0
116.063774	157.0
117.070633	1733.0
119.052124	639.0
119.084595	570.0
121.064629	1084.0
121.095764	250.0
123.046013	312.0
123.080269	221.0
128.064087	1375.0
129.040283	180.0
129.069168	2697.0
130.077347	311.0
131.085831	974.0
132.091019	205.0
133.065063	997.0
133.099991	165.0
135.081863	687.0
136.08049	227.0
137.062622	178.0
141.07074	1761.0
142.079865	1488.0
142.132599	68.0
143.085861	2208.0
144.094833	775.0
145.064423	1138.0
145.101761	800.0
146.072327	309.0
146.108917	277.0
147.081024	769.0
148.09166	267.0
150.436905	96.0
151.112091	208.0
152.063293	1041.0
154.077194	858.0
155.054825	499.0
155.087784	1538.0
156.06662	545.0
156.094406	313.0
157.064178	346.0
157.103394	1609.0
158.103073	131.0
159.078354	197.0
159.11763	1109.0
159.963501	89.0
160.085236	141.0
161.093872	402.0
161.13266	385.0
162.101105	433.0
165.065216	220.0
166.994904	268.0
167.084839	3667.0
168.09436	690.0
169.100967	684.0
169.523239	131.0
171.085922	155.0
171.110031	250.0
172.088196	281.0
173.101257	734.0
173.132477	208.0
175.078827	142.0
175.111496	102.0
177.12056	114.0
177.800674	165.0
178.077469	331.0
179.082825	358.0
181.095779	202.0
183.077072	120.0
183.120041	779.0
185.095764	3589.0
185.131805	352.0
185.752792	188.0
186.103027	886.0
187.116226	150.0
187.64386	148.0
188.117477	176.0
189.161774	415.0
191.102432	198.0
191.139145	236.0
192.094116	194.0
193.10672	692.0
195.111862	131.0
196.125809	152.0
197.097458	519.0
197.13205	354.0
198.103027	177.0
198.998886	81.0
199.112869	154.0
199.213058	74.0
200.111664	373.0
201.089767	1100.0
201.129837	1688.0
202.1035	144.0
203.110291	529.0
203.143417	1113.0
204.141602	106.0
205.103134	204.0
205.154953	343.0
206.109283	221.0
208.118118	104.0
209.132248	120.0
209.153824	120.0
211.113434	501.0
215.101562	120.0
215.138092	380.0
215.188751	146.0
216.143814	156.0
217.041595	158.0
217.159607	144.0
219.13884	650.0
221.124969	146.0
221.150299	263.0
222.166977	229.0
229.124069	95.0
229.155075	158.0
232.145172	148.0
233.155197	960.0
234.15213	316.0
238.166031	185.0
239.17189	149.0
243.143265	141.0
247.202225	100.0
253.197113	429.0
257.190674	360.0
263.147614	200.0
263.18103	615.0
264.188721	207.0
271.202789	419.0
272.216858	128.0
280.807526	196.0
281.158661	250.0
281.190796	2549.0
281.740173	85.0
282.202942	205.0
282.596924	52.0
289.221344	220.0
292.642517	71.0
299.2034	5003.0
300.206329	1392.0
317.204437	1992.0
318.214417	246.0
1402.981201	222.0
1446.592651	151.0
END IONS


BEGIN IONS
PEPMASS=336.253
CHARGE=1
MSLEVEL=2
SOURCE_INSTRUMENT=LC-ESI-Maxis II HD Q-TOF Bruker
FILENAME=JnJ_10uL_B11_GB11_01_2596.mzXML
SEQ=*..*
IONMODE=positive
ORGANISM=GNPS-COLLECTIONS-MISC
NAME=Eicosanoids_13-oxoODE_C18H30O3 M+ACN+H
PI=Dorrestein/Wu
DATACOLLECTOR=lfnothias
SMILES=n/a
INCHI=InChI=1S/C18H30O3/c1-2-3-11-14-17(19)15-12-9-7-5-4-6-8-10-13-16-18(20)21/h7,9,12,15H,2-6,8,10-11,13-14,16H2,1H3,(H,20,21)/b9-7-,15-12+
INCHIAUX=N/A
PUBMED=n/a
SUBMITUSER=mwang87
LIBRARYQUALITY=1
SPECTRUMID=CCMSLIB00001058200
SCANS=1255
79.058609	234.0
81.071671	520.0
82.041534	200.0
82.057106	441.0
91.05442	307.0
93.071297	273.0
94.076149	182.0
95.089165	435.0
96.042213	206.0
96.056953	311.0
96.07943	210.0
97.068329	275.0
105.070992	199.0
107.045761	184.0
108.060326	336.0
108.087265	356.0
109.067123	1347.0
109.101707	953.0
109.466934	80.0
110.06282	241.0
110.099152	1816.0
111.015083	250.0
111.083801	925.0
112.484589	191.0
121.102654	202.0
123.079834	325.0
124.061378	133.0
125.058716	221.0
127.042336	157.0
131.074997	138.0
134.067032	150.0
134.099655	261.0
135.084473	135.0
136.03537	111.0
136.076614	295.0
136.115219	1885.0
137.098282	835.0
139.033707	219.0
141.054871	148.0
143.028198	175.0
147.079849	133.0
148.092819	389.0
149.084167	308.0
150.093521	11703.0
151.100647	2194.0
151.532959	335.0
152.077393	456.0
152.10878	4507.0
152.179581	141.0
153.076996	1171.0
153.110229	502.0
153.151215	177.0
154.067642	442.0
154.12709	249.0
154.99144	51.0
156.233566	398.0
159.773987	149.0
160.983673	177.0
161.544632	216.0
163.346619	105.0
164.106842	1107.0
165.092163	391.0
166.098114	169.0
167.062256	149.0
176.072388	117.0
177.07869	178.0
178.130234	160.0
179.00267	168.0
180.070892	287.0
182.118759	380.0
183.101425	191.0
193.934052	195.0
194.046783	58.0
194.084122	4333.0
194.563751	102.0
195.090942	11866.0
196.097885	1095.0
196.135651	333.0
197.625656	141.0
203.432434	151.0
203.912888	273.0
206.125504	184.0
209.111435	602.0
210.107224	249.0
211.932892	63.0
223.100784	120.0
223.296204	92.0
223.860748	97.0
224.086853	749.0
224.130997	48217.0
224.191971	61.0
224.363113	116.0
224.443848	53.0
224.479736	56.0
224.634293	66.0
224.903275	57.0
225.134109	4858.0
226.513351	54.0
260.537964	63.0
287.122192	167.0
294.262634	143.0
322.01825	298.0
335.483154	66.0
335.642944	83.0
335.974213	199.0
336.03421	542.0
336.257385	44017.0
336.377197	394.0
337.203339	336.0
337.259399	7528.0
338.264893	166.0
339.33606	57.0
339.799591	111.0
339.918274	80.0
355.495453	128.0
357.062012	78.0
405.103485	80.0
END IONS


BEGIN IONS
PEPMASS=317.209
CHARGE=1
MSLEVEL=2
SOURCE_INSTRUMENT=LC-ESI-Maxis II HD Q-TOF Bruker
FILENAME=JnJ_10uL_A4_GA4_01_2574.mzXML
SEQ=*..*
IONMODE=positive
ORGANISM=GNPS-COLLECTIONS-MISC
NAME=Eicosanoids_9-HOTrE_C18H30O3 M+Na
PI=Dorrestein/Wu
DATACOLLECTOR=lfnothias
SMILES=n/a
INCHI=InChI=1S/C18H30O3/c1-2-3-4-5-6-8-11-14-17(19)15-12-9-7-10-13-16-18(20)21/h3-4,6,8,11,14,17,19H,2,5,7,9-10,12-13,15-16H2,1H3,(H,20,21)/b4-3-,8-6-,14-11+/t17-/m1/s1
INCHIAUX=N/A
PUBMED=n/a
SUBMITUSER=mwang87
LIBRARYQUALITY=1
SPECTRUMID=CCMSLIB00001058201
SCANS=935
79.052612	507.0
81.070908	367.0
91.05468	1324.0
93.06942	421.0
103.055016	455.0
104.064102	257.0
105.046715	239.0
105.069099	328.0
108.088875	146.0
115.054359	160.0
116.063362	181.0
117.067574	169.0
119.049286	194.0
119.087685	405.0
120.086906	200.0
122.072708	152.0
128.059525	338.0
129.071167	659.0
130.073563	171.0
131.081528	159.0
133.066467	757.0
133.117599	57.0
134.065659	154.0
135.041977	153.0
141.071976	595.0
143.090256	186.0
144.061523	326.0
144.089218	154.0
145.062698	443.0
147.079407	463.0
153.066635	269.0
155.062439	301.0
155.085587	282.0
157.103561	230.0
159.081238	110.0
161.095062	339.0
167.083206	234.0
168.091064	144.0
169.099609	131.0
171.077698	157.0
171.121918	292.0
172.088913	177.0
173.093109	225.0
178.078369	92.0
181.096878	181.0
183.080658	275.0
183.121567	566.0
185.098526	403.0
187.114166	131.0
189.12738	241.0
195.087372	284.0
197.101822	81.0
201.131775	138.0
211.114594	140.0
215.141907	142.0
217.154999	221.0
219.120667	133.0
225.12825	180.0
229.123474	232.0
233.120758	58.0
239.141998	124.0
239.180176	147.0
245.11882	177.0
271.210205	375.0
299.173462	218.0
299.205109	112.0
300.201935	165.0
317.205658	188.0
1424.728882	309.0
END IONS


BEGIN IONS
PEPMASS=336.253
CHARGE=1
MSLEVEL=2
SOURCE_INSTRUMENT=LC-ESI-Maxis II HD Q-TOF Bruker
FILENAME=JnJ_10uL_A12_GA12_01_2583.mzXML
SEQ=*..*
IONMODE=positive
ORGANISM=GNPS-COLLECTIONS-MISC
NAME=Eicosanoids_8-HEPE_C20H30O3 M+NH4
PI=Dorrestein/Wu
DATACOLLECTOR=lfnothias
SMILES=n/a
INCHI=InChI=1S/C20H30O3/c1-2-3-4-5-6-7-8-9-10-13-16-19(21)17-14-11-12-15-18-20(22)23/h3-4,6-7,9-11,13-14,16,19,21H,2,5,8,12,15,17-18H2,1H3,(H,22,23)/b4-3-,7-6-,10-9-,14-11-,16-13+
INCHIAUX=N/A
PUBMED=n/a
SUBMITUSER=mwang87
LIBRARYQUALITY=1
SPECTRUMID=CCMSLIB00001058203
SCANS=1265
79.053833	144.0
81.066666	185.0
93.06945	235.0
95.048645	130.0
95.075974	476.0
97.917259	315.0
100.039879	217.0
102.823532	217.0
108.045097	178.0
108.081398	897.0
109.063148	432.0
109.103836	1244.0
110.096947	943.0
111.085335	297.0
115.577209	145.0
117.070953	128.0
119.069649	305.0
119.084976	385.0
122.046768	130.0
122.097313	155.0
123.08062	226.0
123.103409	163.0
127.585182	164.0
136.113358	919.0
137.09288	652.0
148.074875	154.0
150.092712	8059.0
151.094543	775.0
151.62204	127.0
151.869553	56.0
152.033722	407.0
152.108795	2137.0
153.05217	136.0
153.079117	356.0
153.110306	430.0
154.065521	284.0
154.089264	104.0
154.129272	207.0
164.112564	125.0
165.115067	219.0
178.127686	183.0
180.076096	200.0
182.122711	365.0
182.210617	74.0
184.635376	53.0
188.10762	127.0
194.080948	4032.0
194.653732	249.0
194.969894	182.0
195.089981	7083.0
195.439804	134.0
195.546524	108.0
196.096161	854.0
208.110046	161.0
218.918503	157.0
223.725586	150.0
224.129425	26908.0
224.654495	173.0
225.132034	2683.0
226.662323	57.0
243.859055	192.0
267.0672	203.0
269.124084	200.0
270.159363	63.0
271.294586	231.0
334.556152	58.0
334.642242	84.0
335.929993	163.0
335.969116	149.0
336.144165	129.0
336.20166	704.0
336.253845	26828.0
336.323608	161.0
336.524628	175.0
336.829956	62.0
337.209991	130.0
337.258514	4638.0
338.255157	211.0
339.605255	134.0
339.638367	87.0
1236.259277	308.0
END IONS


BEGIN IONS
PEPMASS=336.253
CHARGE=1
MSLEVEL=2
SOURCE_INSTRUMENT=LC-ESI-Maxis II HD Q-TOF Bruker
FILENAME=JnJ_10uL_A9_GA9_01_2580.mzXML
SEQ=*..*
IONMODE=positive
ORGANISM=GNPS-COLLECTIONS-MISC
NAME=Eicosanoids_13-HOTrE(y)_C18H30O3 M+ACN+H
PI=Dorrestein/Wu
DATACOLLECTOR=lfnothias
SMILES=n/a
INCHI=n/a
INCHIAUX=N/A
PUBMED=n/a
SUBMITUSER=mwang87
LIBRARYQUALITY=1
SPECTRUMID=CCMSLIB00001058206
SCANS=1252
81.073044	154.0
89.990631	263.0
91.053978	225.0
93.06958	348.0
95.041252	219.0
95.067329	183.0
95.090408	289.0
96.089218	181.0
97.10244	154.0
97.502609	328.0
105.07283	275.0
107.065903	157.0
108.057625	596.0
108.082657	865.0
108.663223	208.0
109.043892	257.0
109.066734	566.0
109.102531	1530.0
110.062637	565.0
110.097458	1912.0
111.092651	174.0
117.075203	172.0
119.088165	868.0
122.101181	246.0
123.085876	285.0
124.079872	146.0
124.114586	235.0
131.052444	195.0
136.076309	418.0
136.109406	372.0
137.094803	656.0
139.663788	228.0
146.090027	428.0
147.081024	153.0
147.918655	59.0
149.080719	322.0
150.092545	7414.0
151.09549	801.0
151.501282	71.0
151.58783	66.0
152.108459	1933.0
153.076294	163.0
153.11174	153.0
154.072937	596.0
158.60675	341.0
162.685593	85.0
163.525177	71.0
163.766312	58.0
164.050812	203.0
164.105728	476.0
165.094208	418.0
166.084518	125.0
178.124374	324.0
181.07724	130.0
193.773804	162.0
194.055908	232.0
194.08223	2619.0
194.962234	252.0
195.088745	6457.0
196.093201	1464.0
202.918762	103.0
209.104187	213.0
214.014603	128.0
224.129288	32495.0
224.758041	68.0
225.132263	4422.0
226.138412	213.0
250.153122	157.0
287.786621	76.0
334.801971	56.0
334.997925	204.0
335.418671	84.0
335.971924	90.0
336.067291	53.0
336.253082	24446.0
336.315277	281.0
337.170349	70.0
337.212463	162.0
337.255646	3417.0
338.257904	148.0
340.588287	89.0
347.391022	194.0
356.59964	83.0
484.121246	97.0
976.185486	129.0
END IONS


BEGIN IONS
PEPMASS=355.248
CHARGE=1
MSLEVEL=2
SOURCE_INSTRUMENT=LC-ESI-Maxis II HD Q-TOF Bruker
FILENAME=JnJ_10uL_B8_GB8_01_2593.mzXML
SEQ=*..*
IONMODE=positive
ORGANISM=GNPS-COLLECTIONS-MISC
NAME=Eicosanoids_15kPGF1?_C20H34O5 M+H
PI=Dorrestein/Wu
DATACOLLECTOR=lfnothias
SMILES=n/a
INCHI=n/a
INCHIAUX=N/A
PUBMED=n/a
SUBMITUSER=mwang87
LIBRARYQUALITY=1
SPECTRUMID=CCMSLIB00001058208
SCANS=650
79.052963	301.0
81.024963	198.0
81.070129	819.0
83.051788	604.0
83.08696	182.0
84.095871	294.0
91.055092	1486.0
93.052444	151.0
93.071243	842.0
95.05056	150.0
95.085114	336.0
96.046211	262.0
96.800713	235.0
97.065735	157.0
97.103584	159.0
105.071129	762.0
107.050575	466.0
107.084244	421.0
109.061676	544.0
110.07148	204.0
117.072266	1278.0
119.063232	179.0
119.087547	1065.0
119.293373	79.0
121.070404	252.0
122.063171	133.0
123.047546	306.0
123.082542	164.0
127.112381	388.0
128.065109	389.0
129.073044	486.0
130.077942	338.0
131.085953	2159.0
132.056335	221.0
133.048492	145.0
133.067291	842.0
133.104248	598.0
134.067902	189.0
135.119186	312.0
141.072769	359.0
141.128067	289.0
143.08815	1075.0
143.389725	110.0
144.076462	266.0
144.093613	780.0
145.107147	995.0
146.105652	167.0
147.121506	300.0
149.096985	274.0
149.142639	177.0
151.114044	1179.0
152.06189	113.0
155.059906	172.0
155.088028	129.0
156.096329	255.0
157.108765	376.0
159.080338	512.0
159.120453	1148.0
161.102371	147.0
161.134048	551.0
162.137634	69.0
163.115463	238.0
163.150772	104.0
165.080765	207.0
165.12619	458.0
167.086716	174.0
169.100052	176.0
171.117783	344.0
173.103043	332.0
173.139435	755.0
175.117661	500.0
175.14798	390.0
177.131073	919.0
179.111588	281.0
179.148834	335.0
180.375854	278.0
183.11644	304.0
184.089691	176.0
185.13295	1184.0
187.113602	340.0
188.117157	140.0
189.129227	616.0
189.165192	219.0
191.148438	868.0
192.142975	80.0
193.125046	462.0
195.117691	142.0
195.144699	182.0
199.150436	237.0
201.129257	299.0
203.144363	892.0
204.154663	400.0
205.101273	247.0
205.130188	508.0
205.162827	285.0
206.131073	468.0
208.145554	75.0
217.158798	759.0
219.136856	184.0
221.154953	677.0
222.160156	132.0
223.133362	407.0
224.154922	225.0
227.142929	299.0
231.141251	187.0
235.166672	198.0
239.181595	183.0
241.194595	103.0
255.217941	146.0
257.193726	110.0
258.234039	155.0
259.174042	194.0
266.200897	84.0
273.219849	476.0
277.222931	100.0
283.209808	524.0
284.213837	78.0
291.238098	528.0
293.214325	414.0
301.218292	2922.0
302.219818	217.0
319.228241	9419.0
320.234314	1946.0
337.239349	575.0
354.930145	73.0
963.671082	258.0
1063.987793	185.0
1293.566772	279.0
1325.721313	317.0
1427.232422	162.0
END IONS


BEGIN IONS
PEPMASS=335.222
CHARGE=1
MSLEVEL=2
SOURCE_INSTRUMENT=LC-ESI-Maxis II HD Q-TOF Bruker
FILENAME=JnJ_10uL_B8_GB8_01_2593.mzXML
SEQ=*..*
IONMODE=positive
ORGANISM=GNPS-COLLECTIONS-MISC
NAME=Eicosanoids_13,14dh15kPGA2_C20H30O4 M+H
PI=Dorrestein/Wu
DATACOLLECTOR=lfnothias
SMILES=n/a
INCHI=n/a
INCHIAUX=N/A
PUBMED=n/a
SUBMITUSER=mwang87
LIBRARYQUALITY=1
SPECTRUMID=CCMSLIB00001058210
SCANS=799
79.05761	196.0
81.068268	240.0
82.074226	235.0
91.053963	982.0
93.07058	646.0
95.044502	169.0
97.031174	220.0
97.066139	83.0
103.055939	100.0
105.047424	128.0
105.071579	855.0
107.050896	892.0
107.092056	161.0
109.066048	120.0
115.056786	149.0
116.061653	522.0
117.068794	385.0
119.05127	1069.0
119.086105	397.0
121.06414	768.0
121.541885	176.0
123.087021	305.0
125.070503	187.0
127.658836	161.0
128.065857	353.0
129.070267	1188.0
129.414841	177.0
131.057709	72.0
131.087753	696.0
132.041611	198.0
132.09169	214.0
133.065796	360.0
133.101028	248.0
134.956238	136.0
135.036026	60.0
135.083405	516.0
135.412628	119.0
141.074097	1120.0
142.078018	1382.0
143.086853	799.0
143.430191	56.0
143.518387	316.0
144.059174	686.0
144.090103	134.0
145.069611	463.0
146.068848	298.0
147.082596	353.0
147.115173	105.0
149.065277	242.0
151.064423	269.0
151.1129	378.0
152.069244	263.0
153.065445	206.0
153.129822	301.0
155.054306	264.0
155.086777	565.0
156.090378	168.0
156.384872	233.0
157.027603	257.0
157.065613	925.0
157.103012	1612.0
157.962357	67.0
159.080917	626.0
159.117813	535.0
159.181122	152.0
160.08609	158.0
161.098175	726.0
163.118805	269.0
166.079529	888.0
167.087631	1563.0
168.082428	174.0
169.06694	363.0
170.055252	141.0
170.073914	432.0
171.083206	217.0
171.119263	254.0
173.072296	251.0
173.095398	86.0
174.139404	159.0
175.113983	722.0
179.091949	450.0
180.09671	161.0
181.082657	109.0
181.104782	433.0
182.108978	354.0
183.122696	281.0
184.117355	357.0
185.098236	6349.0
186.102081	150.0
187.153702	207.0
189.128387	123.0
189.162094	138.0
191.106842	494.0
192.144043	138.0
195.073776	212.0
195.102753	323.0
199.118118	211.0
200.060379	156.0
200.118607	179.0
201.094833	185.0
201.130737	988.0
202.130203	202.0
203.109116	2648.0
203.143875	376.0
204.150665	184.0
205.159363	144.0
205.514023	138.0
207.119995	485.0
207.178207	154.0
211.11087	161.0
211.172119	154.0
215.146164	923.0
216.141846	102.0
219.13858	268.0
223.09967	97.0
224.123642	114.0
225.133163	168.0
226.135635	115.0
229.125214	128.0
233.15239	377.0
238.130188	198.0
243.209076	95.0
253.153961	118.0
254.199692	339.0
255.181	193.0
257.199677	244.0
258.188873	166.0
262.151215	79.0
263.184021	672.0
271.20813	418.0
281.188446	623.0
283.261902	123.0
290.215851	226.0
298.086456	142.0
298.194458	119.0
299.172272	176.0
299.203125	2340.0
300.2117	212.0
316.015411	121.0
317.215668	1707.0
318.216858	523.0
336.257904	142.0
1431.562256	207.0
END IONS


BEGIN IONS
PEPMASS=323.258
CHARGE=1
MSLEVEL=2
SOURCE_INSTRUMENT=LC-ESI-Maxis II HD Q-TOF Bruker
FILENAME=JnJ_10uL_B9_GB9_01_2594.mzXML
SEQ=*..*
IONMODE=positive
ORGANISM=GNPS-COLLECTIONS-MISC
NAME=Eicosanoids_15-oxoEDE_C20H34O3 M+H
PI=Dorrestein/Wu
DATACOLLECTOR=lfnothias
SMILES=n/a
INCHI=InChI=1S/C20H34O3/c1-2-3-13-16-19(21)17-14-11-9-7-5-4-6-8-10-12-15-18-20(22)23/h9,11,14,17H,2-8,10,12-13,15-16,18H2,1H3,(H,22,23)/b11-9-,17-14+
INCHIAUX=N/A
PUBMED=n/a
SUBMITUSER=mwang87
LIBRARYQUALITY=1
SPECTRUMID=CCMSLIB00001058212
SCANS=1151
75.386421	172.0
76.845695	315.0
76.889748	58.0
77.039955	384.0
79.056923	1758.0
80.058975	202.0
81.033188	388.0
81.071655	1869.0
81.516647	53.0
82.066902	139.0
83.053711	759.0
83.090096	633.0
89.763908	57.0
91.056396	1085.0
92.058296	195.0
93.069153	3207.0
94.075035	442.0
95.052002	136.0
95.085716	904.0
96.092216	175.0
97.063858	216.0
98.098831	50.0
99.081703	820.0
104.055046	166.0
105.045296	1250.0
105.070763	728.0
105.112061	73.0
106.078781	189.0
107.037872	122.0
107.086258	1031.0
109.067924	260.0
109.103317	350.0
111.117035	214.0
119.062935	511.0
119.089729	286.0
121.104141	1459.0
122.1082	166.0
123.022835	74.0
123.087784	246.0
127.113647	77.0
129.092743	120.0
131.090164	213.0
133.105942	386.0
135.080719	208.0
135.120102	847.0
136.136765	270.0
137.099701	111.0
141.093002	1048.0
147.121307	922.0
148.123337	144.0
149.134598	488.0
151.114624	610.0
153.132004	500.0
153.179169	54.0
159.117004	162.0
161.13765	333.0
163.150497	161.0
165.125549	178.0
185.52597	284.0
189.164474	577.0
190.506348	115.0
203.143005	184.0
203.162964	223.0
205.163681	148.0
205.870224	118.0
206.805511	262.0
207.176361	12237.0
207.584137	95.0
207.682159	123.0
208.182617	1340.0
217.155441	115.0
223.171051	155.0
235.171463	132.0
249.185287	234.0
263.201172	221.0
305.25174	3191.0
306.260529	711.0
323.256042	119.0
835.12146	211.0
1314.882324	78.0
END IONS


BEGIN IONS
PEPMASS=353.232
CHARGE=1
MSLEVEL=2
SOURCE_INSTRUMENT=LC-ESI-Maxis II HD Q-TOF Bruker
FILENAME=JnJ_10uL_B9_GB9_01_2594.mzXML
SEQ=*..*
IONMODE=positive
ORGANISM=GNPS-COLLECTIONS-MISC
NAME=Eicosanoids_LXB4_C20H32O5 M+H
PI=Dorrestein/Wu
DATACOLLECTOR=lfnothias
SMILES=n/a
INCHI=InChI=1S/C20H32O5/c1-2-3-8-14-18(22)19(23)15-10-7-5-4-6-9-12-17(21)13-11-16-20(24)25/h4-7,9-10,12,15,17-19,21-23H,2-3,8,11,13-14,16H2,1H3,(H,24,25)/b6-4-,7-5+,12-9+,15-10+/t17-,18+,19-/m1/s1
INCHIAUX=N/A
PUBMED=n/a
SUBMITUSER=mwang87
LIBRARYQUALITY=1
SPECTRUMID=CCMSLIB00001058214
SCANS=604
81.071472	178.0
82.893211	342.0
85.06768	172.0
91.055824	719.0
92.05748	426.0
95.085167	214.0
103.05603	143.0
105.045799	377.0
105.068069	116.0
106.075348	108.0
111.043526	166.0
115.056473	431.0
116.063972	189.0
117.07122	1159.0
119.086235	217.0
121.066879	386.0
123.117172	231.0
127.0569	179.0
128.069244	136.0
129.070755	2128.0
131.087814	2020.0
132.094116	116.0
133.103546	441.0
141.071106	539.0
142.082672	180.0
143.087418	1703.0
143.121826	169.0
144.066498	232.0
144.089233	159.0
145.048004	117.0
145.067261	263.0
145.107544	554.0
147.087463	305.0
147.122971	159.0
148.091644	137.0
148.119125	141.0
149.091492	114.0
151.11644	360.0
152.060944	175.0
155.064392	167.0
155.087555	178.0
157.069275	253.0
157.10437	1040.0
158.107712	185.0
159.098907	149.0
159.119644	115.0
161.099823	730.0
165.09346	90.0
165.129044	125.0
167.08847	464.0
171.117844	133.0
173.100708	827.0
173.134247	204.0
175.117874	102.0
176.079193	142.0
177.091019	176.0
181.103363	437.0
182.106308	311.0
183.121231	450.0
183.342316	125.0
184.123718	137.0
185.101929	1123.0
186.914627	162.0
197.135788	255.0
201.134521	779.0
202.12709	188.0
203.109344	297.0
207.135818	126.0
211.111633	213.0
215.144684	100.0
216.144073	152.0
219.140793	1031.0
225.169662	173.0
227.178909	546.0
281.197205	153.0
299.206177	289.0
317.212372	599.0
335.217621	149.0
367.272949	129.0
1483.965088	246.0
END IONS


BEGIN IONS
PEPMASS=335.222
CHARGE=1
MSLEVEL=2
SOURCE_INSTRUMENT=LC-ESI-Maxis II HD Q-TOF Bruker
FILENAME=JnJ_10uL_B4_GB4_01_2588.mzXML
SEQ=*..*
IONMODE=positive
ORGANISM=GNPS-COLLECTIONS-MISC
NAME=Eicosanoids_PGJ2_C20H30O4 M+H
PI=Dorrestein/Wu
DATACOLLECTOR=lfnothias
SMILES=n/a
INCHI=InChI=1S/C20H30O4/c1-2-3-6-10-17(21)13-14-18-16(12-15-19(18)22)9-7-4-5-8-11-20(23)24/h4,7,12-18,21H,2-3,5-6,8-11H2,1H3,(H,23,24)/b7-4-,14-13+/t16-,17-,18+/m0/s1
INCHIAUX=N/A
PUBMED=n/a
SUBMITUSER=mwang87
LIBRARYQUALITY=1
SPECTRUMID=CCMSLIB00001058218
SCANS=809
91.054504	795.0
92.060425	488.0
93.070847	761.0
95.036491	255.0
105.051987	325.0
105.06916	299.0
105.559555	67.0
106.076347	336.0
106.81913	169.0
106.987083	133.0
107.051498	1484.0
109.06427	403.0
109.101738	216.0
115.054092	352.0
116.0578	326.0
117.071526	1543.0
118.07373	157.0
119.052734	611.0
119.084511	234.0
120.043724	103.0
120.058228	143.0
121.064796	364.0
124.019196	216.0
127.110626	249.0
128.058395	178.0
128.115952	320.0
129.06842	2086.0
130.079514	106.0
131.087219	425.0
133.066803	453.0
133.102402	310.0
135.047882	174.0
135.08107	52.0
141.071823	949.0
141.128387	145.0
142.074951	338.0
143.084473	1012.0
144.013336	52.0
144.06041	230.0
144.089981	216.0
145.065628	475.0
145.099564	725.0
145.174347	93.0
145.676071	81.0
147.081177	377.0
149.095474	78.0
149.130585	137.0
152.066483	176.0
155.062424	465.0
155.084396	548.0
156.718185	250.0
157.060974	322.0
157.103241	836.0
158.071487	137.0
159.088745	368.0
159.131104	98.0
160.092194	184.0
161.099197	459.0
161.131836	129.0
163.113037	380.0
165.190369	161.0
165.883392	83.0
167.0923	182.0
170.072983	178.0
171.083267	135.0
173.099548	797.0
173.131241	314.0
174.100693	327.0
175.116241	1033.0
179.098145	157.0
179.403793	55.0
181.101776	163.0
183.118988	585.0
184.093506	119.0
184.13443	215.0
185.09816	2990.0
189.163589	142.0
191.108978	714.0
193.076065	153.0
197.130432	136.0
201.131424	521.0
201.16449	179.0
202.128494	142.0
203.108719	3458.0
203.201981	72.0
204.110458	540.0
207.131439	125.0
210.108765	246.0
212.463577	124.0
215.143585	107.0
217.197433	217.0
219.14238	347.0
231.137756	139.0
233.153244	389.0
237.160187	322.0
243.13504	207.0
254.204941	274.0
271.199524	70.0
281.19046	436.0
282.1987	351.0
297.055145	187.0
299.203186	1740.0
299.92984	166.0
300.044434	51.0
301.517242	94.0
317.21524	1532.0
318.217041	182.0
335.203003	295.0
393.198669	74.0
END IONS


BEGIN IONS
PEPMASS=317.211
CHARGE=1
MSLEVEL=2
SOURCE_INSTRUMENT=LC-ESI-Maxis II HD Q-TOF Bruker
FILENAME=JnJ_10uL_B4_GB4_01_2588.mzXML
SEQ=*..*
IONMODE=positive
ORGANISM=GNPS-COLLECTIONS-MISC
NAME=Eicosanoids_PGJ2_C20H30O4 M-H2O+H
PI=Dorrestein/Wu
DATACOLLECTOR=lfnothias
SMILES=n/a
INCHI=InChI=1S/C20H30O4/c1-2-3-6-10-17(21)13-14-18-16(12-15-19(18)22)9-7-4-5-8-11-20(23)24/h4,7,12-18,21H,2-3,5-6,8-11H2,1H3,(H,23,24)/b7-4-,14-13+/t16-,17-,18+/m0/s1
INCHIAUX=N/A
PUBMED=n/a
SUBMITUSER=mwang87
LIBRARYQUALITY=1
SPECTRUMID=CCMSLIB00001058219
SCANS=739
78.046837	182.0
79.057129	418.0
81.068489	165.0
81.938469	330.0
82.075325	209.0
91.040916	65.0
91.055939	206.0
93.033234	170.0
95.049805	377.0
103.054604	182.0
105.046104	433.0
105.070137	805.0
107.044754	294.0
115.043015	160.0
117.068001	594.0
118.076927	112.0
119.086563	859.0
120.087196	150.0
121.063835	198.0
122.068619	174.0
123.118568	230.0
128.06163	144.0
129.072968	709.0
130.079269	367.0
131.05098	159.0
131.086609	1244.0
132.059067	253.0
133.065628	425.0
141.071152	441.0
142.087845	322.0
143.08461	1042.0
144.086517	182.0
145.067795	824.0
145.105591	735.0
147.083069	939.0
150.362289	72.0
153.071243	225.0
155.083405	145.0
157.043655	208.0
158.099152	161.0
159.080505	437.0
159.499176	75.0
160.791061	108.0
161.100693	209.0
163.089493	151.0
168.097809	160.0
169.191345	238.0
170.105698	201.0
171.08194	406.0
172.083618	86.0
173.101105	210.0
173.132309	289.0
175.113007	238.0
181.076187	224.0
181.108231	192.0
184.124695	149.0
185.101547	156.0
187.10936	348.0
187.148972	148.0
189.085526	172.0
189.123489	234.0
192.091797	473.0
198.101608	100.0
201.094971	445.0
203.108627	166.0
205.103485	179.0
215.098648	75.0
215.14386	213.0
221.094009	108.0
229.196198	171.0
233.139969	130.0
235.130432	87.0
245.119293	220.0
253.206573	206.0
257.153625	157.0
271.210724	175.0
281.187897	167.0
299.200775	622.0
300.214996	191.0
316.354248	166.0
319.993958	102.0
END IONS


BEGIN IONS
PEPMASS=357.204
CHARGE=1
MSLEVEL=2
SOURCE_INSTRUMENT=LC-ESI-Maxis II HD Q-TOF Bruker
FILENAME=JnJ_10uL_B4_GB4_01_2588.mzXML
SEQ=*..*
IONMODE=positive
ORGANISM=GNPS-COLLECTIONS-MISC
NAME=Eicosanoids_PGJ2_C20H30O4 M+Na
PI=Dorrestein/Wu
DATACOLLECTOR=lfnothias
SMILES=n/a
INCHI=InChI=1S/C20H30O4/c1-2-3-6-10-17(21)13-14-18-16(12-15-19(18)22)9-7-4-5-8-11-20(23)24/h4,7,12-18,21H,2-3,5-6,8-11H2,1H3,(H,23,24)/b7-4-,14-13+/t16-,17-,18+/m0/s1
INCHIAUX=N/A
PUBMED=n/a
SUBMITUSER=mwang87
LIBRARYQUALITY=1
SPECTRUMID=CCMSLIB00001058222
SCANS=806
121.103722	252.0
137.856888	183.0
192.11377	297.0
275.06073	233.0
276.506714	235.0
293.694977	169.0
353.541809	75.0
355.676086	103.0
357.205444	11025.0
357.383331	169.0
357.447784	151.0
357.552795	66.0
358.205109	1617.0
359.03302	168.0
359.663757	89.0
END IONS


BEGIN IONS
PEPMASS=337.235
CHARGE=1
MSLEVEL=2
SOURCE_INSTRUMENT=LC-ESI-Maxis II HD Q-TOF Bruker
FILENAME=JnJ_10uL_B4_GB4_01_2588.mzXML
SEQ=*..*
IONMODE=positive
ORGANISM=GNPS-COLLECTIONS-MISC
NAME=Eicosanoids_12,13diHOME_C18H34O4 M+Na
PI=Dorrestein/Wu
DATACOLLECTOR=lfnothias
SMILES=n/a
INCHI=n/a
INCHIAUX=N/A
PUBMED=n/a
SUBMITUSER=mwang87
LIBRARYQUALITY=1
SPECTRUMID=CCMSLIB00001058224
SCANS=830
77.038742	140.0
78.00219	248.0
78.232933	60.0
79.05574	5248.0
79.248909	225.0
81.035477	296.0
81.070976	2130.0
82.07431	191.0
83.051064	621.0
83.090492	144.0
85.031776	137.0
85.517601	114.0
88.188774	98.0
91.054062	6660.0
91.090172	75.0
92.058052	411.0
93.07061	6701.0
93.960045	76.0
94.072754	152.0
94.794884	190.0
95.050034	2198.0
95.087692	2361.0
96.255791	229.0
99.080078	2314.0
99.106216	225.0
100.085464	417.0
101.684105	297.0
102.049385	155.0
103.054672	646.0
103.275963	116.0
105.048912	1572.0
105.070251	7104.0
106.045174	152.0
106.076317	653.0
107.049522	5592.0
107.087013	2651.0
108.056519	184.0
109.066689	2370.0
109.102646	217.0
109.45153	322.0
110.067825	355.0
111.081978	1026.0
113.547859	190.0
113.947479	174.0
115.055099	1165.0
116.047081	160.0
116.064743	302.0
117.070946	4646.0
117.663208	140.0
118.073036	672.0
118.990845	67.0
119.086609	7171.0
120.09288	427.0
120.819	56.0
121.066917	2831.0
121.104698	1155.0
122.067001	149.0
122.109863	169.0
122.774399	148.0
123.041336	183.0
123.081253	1635.0
123.117233	331.0
124.083519	639.0
125.100121	472.0
127.075188	393.0
127.11264	369.0
128.063934	1344.0
129.070709	3661.0
130.055756	276.0
130.077469	482.0
131.048981	177.0
131.087097	5597.0
131.112427	315.0
132.059494	314.0
132.090881	387.0
133.064865	2577.0
133.104294	2476.0
133.737732	70.0
134.028397	127.0
134.074036	717.0
134.104843	350.0
135.083557	2019.0
135.118149	1053.0
136.084671	115.0
137.065033	64.0
137.09639	722.0
138.063873	186.0
138.103271	424.0
141.071457	2260.0
141.128067	108.0
142.080765	1560.0
143.085938	1776.0
144.09462	2062.0
145.067291	620.0
145.102219	3703.0
145.184311	76.0
145.35733	91.0
145.618546	223.0
146.072006	129.0
146.105347	544.0
147.054169	158.0
147.081299	2098.0
147.117538	2947.0
148.058334	218.0
148.088333	538.0
148.123489	189.0
149.097549	1452.0
149.136093	858.0
150.138489	175.0
150.307404	238.0
151.076553	799.0
151.11676	383.0
152.066376	492.0
153.065094	347.0
153.090057	357.0
153.130569	247.0
154.079865	673.0
155.067093	720.0
155.085663	1304.0
156.095718	193.0
156.172958	96.0
157.065857	525.0
157.102081	1993.0
157.771408	207.0
158.075317	176.0
159.080841	1041.0
159.119156	19878.0
160.083496	243.0
160.118851	1419.0
160.174225	284.0
160.610046	181.0
161.099777	1791.0
161.134369	1048.0
161.329544	290.0
161.55983	110.0
162.095856	180.0
162.142044	475.0
163.07991	418.0
163.113129	542.0
163.15303	376.0
165.091888	434.0
165.130829	151.0
165.166183	227.0
166.077606	143.0
167.085678	486.0
167.109482	202.0
168.091843	423.0
169.102524	5638.0
169.885956	290.0
170.108215	1276.0
171.08847	465.0
171.119415	1354.0
171.380157	89.0
172.114349	141.0
172.446548	242.0
173.0979	600.0
173.133301	1200.0
174.100525	635.0
174.670334	226.0
175.082718	268.0
175.113007	457.0
175.150192	1669.0
175.762817	140.0
176.107742	228.0
176.146515	89.0
177.078079	200.0
177.128571	3323.0
178.136215	446.0
181.10643	887.0
181.160477	145.0
183.00296	344.0
183.117783	796.0
184.089264	126.0
184.12851	135.0
185.100128	634.0
185.135483	1692.0
186.110596	240.0
186.130753	174.0
187.026932	84.0
187.113022	7490.0
187.15126	351.0
188.118759	675.0
189.131424	1374.0
189.167969	427.0
191.143326	1028.0
192.1138	179.0
193.159561	1259.0
194.089325	201.0
195.118423	1066.0
197.093872	131.0
197.135941	63.0
198.277298	50.0
199.116226	114.0
199.14946	2226.0
201.127029	356.0
201.333099	75.0
202.130539	136.0
203.113831	508.0
203.145905	4372.0
203.184006	173.0
203.224533	48.0
204.150909	322.0
204.180206	295.0
204.823471	113.0
205.123596	9201.0
205.158432	1548.0
206.121414	268.0
206.165329	183.0
207.181396	326.0
207.259842	147.0
207.68335	128.0
209.107895	217.0
209.155426	1791.0
210.164368	450.0
210.75856	76.0
212.117142	134.0
213.128265	422.0
214.170502	231.0
215.142273	139.0
215.185638	241.0
216.14772	192.0
217.136627	189.0
217.159698	1274.0
218.160858	177.0
218.505798	195.0
219.138992	906.0
219.175812	185.0
220.008194	78.0
220.149796	174.0
221.152847	2838.0
221.188156	348.0
221.312958	119.0
221.405136	97.0
221.831253	288.0
223.150894	196.0
225.135849	152.0
225.165451	135.0
227.146011	352.0
228.160278	214.0
229.159927	157.0
229.202637	219.0
231.13942	129.0
235.170639	1200.0
237.147705	117.0
237.186462	109.0
240.181961	142.0
240.569016	212.0
241.144089	168.0
241.193039	235.0
242.180573	233.0
245.15033	142.0
245.233139	449.0
246.230789	477.0
249.185928	832.0
249.221863	188.0
255.213821	3052.0
256.220398	297.0
257.238434	554.0
259.203003	316.0
263.208038	378.0
265.195221	1277.0
266.200439	617.0
273.186707	218.0
273.223938	8064.0
274.22641	535.0
274.278503	73.0
275.19986	158.0
282.316345	102.0
283.151215	132.0
283.205109	6295.0
284.212128	975.0
284.41748	57.0
284.61499	79.0
286.349396	113.0
290.226929	150.0
290.536713	131.0
290.716339	139.0
291.233459	11929.0
291.334778	251.0
292.235168	1469.0
293.117981	169.0
296.240326	168.0
301.136353	307.0
301.166473	342.0
301.218201	17992.0
302.218353	2514.0
303.665253	74.0
304.141052	152.0
304.219788	57.0
305.569977	66.0
318.66684	136.0
319.229858	12586.0
320.231171	2574.0
322.21756	79.0
337.237671	680.0
338.252106	165.0
536.800476	65.0
950.635681	170.0
987.686157	312.0
1026.371948	175.0
1029.392822	314.0
1330.285767	301.0
1343.999512	211.0
1353.286865	233.0
1367.588623	78.0
1400.921997	296.0
1440.71228	143.0
END IONS


BEGIN IONS
PEPMASS=319.226
CHARGE=1
MSLEVEL=2
SOURCE_INSTRUMENT=LC-ESI-Maxis II HD Q-TOF Bruker
FILENAME=JnJ_10uL_B4_GB4_01_2588.mzXML
SEQ=*..*
IONMODE=positive
ORGANISM=GNPS-COLLECTIONS-MISC
NAME=Eicosanoids_bicycloPGE1_C20H32O4 M-H2O+H
PI=Dorrestein/Wu
DATACOLLECTOR=lfnothias
SMILES=n/a
INCHI=n/a
INCHIAUX=N/A
PUBMED=n/a
SUBMITUSER=mwang87
LIBRARYQUALITY=1
SPECTRUMID=CCMSLIB00001058233
SCANS=782
86.06871	172.0
91.053223	732.0
95.089996	614.0
105.057098	277.0
105.069412	320.0
107.047501	348.0
107.084633	163.0
115.054192	60.0
115.773537	72.0
116.058075	250.0
117.073906	188.0
119.086411	716.0
121.103539	252.0
129.068817	147.0
130.073196	196.0
131.086807	414.0
133.068558	157.0
137.134415	138.0
141.07135	261.0
142.077087	186.0
143.089828	119.0
145.062424	158.0
145.103226	399.0
147.080383	511.0
147.121948	330.0
149.095367	185.0
151.11319	410.0
155.088608	238.0
157.100906	310.0
159.080429	201.0
159.118469	237.0
161.09938	467.0
161.131592	207.0
167.108978	180.0
169.100311	213.0
171.109619	450.0
175.108246	137.0
177.130295	232.0
182.072388	104.0
183.096329	156.0
185.098694	373.0
188.154739	177.0
189.155487	289.0
191.142563	295.0
199.149124	87.0
203.139389	133.0
204.111374	164.0
209.128845	248.0
213.160583	223.0
215.142593	134.0
216.917557	138.0
217.56926	100.0
221.122864	113.0
227.196106	156.0
244.071289	199.0
247.171768	338.0
255.210526	176.0
265.202179	109.0
272.933777	65.0
273.302429	63.0
283.214752	232.0
283.585388	76.0
301.212982	1809.0
302.224274	232.0
1503.110107	286.0
END IONS


BEGIN IONS
PEPMASS=354.264
CHARGE=1
MSLEVEL=2
SOURCE_INSTRUMENT=LC-ESI-Maxis II HD Q-TOF Bruker
FILENAME=JnJ_10uL_B4_GB4_01_2588.mzXML
SEQ=*..*
IONMODE=positive
ORGANISM=GNPS-COLLECTIONS-MISC
NAME=Eicosanoids_bicycloPGE1_C20H32O4 M+NH4
PI=Dorrestein/Wu
DATACOLLECTOR=lfnothias
SMILES=n/a
INCHI=n/a
INCHIAUX=N/A
PUBMED=n/a
SUBMITUSER=mwang87
LIBRARYQUALITY=1
SPECTRUMID=CCMSLIB00001058237
SCANS=834
78.92511	243.0
79.056244	620.0
80.058044	157.0
81.034386	165.0
81.071526	861.0
82.073593	179.0
83.046616	540.0
83.086678	694.0
85.066315	239.0
91.057922	218.0
93.070213	1220.0
95.048927	416.0
95.088226	173.0
99.079727	446.0
105.04599	205.0
105.070602	1473.0
105.096687	111.0
106.02655	115.0
107.050697	903.0
107.086418	609.0
109.064911	560.0
109.103462	175.0
111.046577	238.0
111.077881	202.0
117.07119	1221.0
119.08654	1410.0
121.067802	855.0
122.068932	185.0
123.083939	566.0
123.370171	297.0
124.084663	229.0
127.117577	169.0
129.073242	397.0
130.075073	118.0
131.068466	143.0
131.08873	502.0
131.582047	98.0
131.606812	190.0
133.068375	398.0
133.089493	167.0
134.108841	470.0
135.079773	560.0
135.122208	938.0
137.09816	582.0
138.362198	212.0
141.071198	666.0
142.07988	197.0
143.088409	788.0
144.071533	150.0
144.098206	425.0
145.076233	223.0
145.104767	581.0
146.111664	487.0
146.428345	201.0
147.083954	501.0
147.115799	313.0
148.084259	265.0
149.062241	314.0
152.987381	270.0
153.069397	168.0
154.075806	78.0
156.085861	187.0
157.101517	299.0
158.978882	199.0
159.079712	170.0
159.119217	4487.0
159.260025	149.0
160.129227	243.0
162.141708	112.0
163.11441	344.0
163.147385	343.0
169.101593	1662.0
170.106018	81.0
171.115936	383.0
173.131378	289.0
175.055954	314.0
175.144211	482.0
177.12706	1330.0
179.088623	179.0
185.133957	537.0
186.648865	106.0
187.112503	786.0
187.422913	88.0
188.115875	255.0
189.046234	182.0
189.165573	301.0
191.141479	424.0
193.155273	104.0
197.134567	167.0
199.151337	469.0
201.12384	150.0
202.406296	145.0
203.112564	120.0
203.142578	869.0
204.150452	127.0
205.125687	1479.0
205.158798	267.0
206.128922	750.0
207.08606	122.0
209.15094	729.0
213.049072	254.0
217.159409	140.0
219.135971	209.0
221.157059	336.0
227.141785	137.0
231.135757	226.0
235.170853	683.0
240.158371	140.0
245.218964	374.0
251.101547	126.0
255.209518	585.0
257.21933	205.0
259.199432	211.0
263.09906	146.0
263.242615	197.0
265.195648	379.0
266.198151	132.0
267.090393	194.0
272.253357	103.0
273.224152	1709.0
273.936157	146.0
283.15451	85.0
283.208649	1874.0
284.210297	343.0
285.098419	270.0
291.235382	3612.0
291.288483	186.0
292.243835	359.0
299.987	183.0
301.218231	5243.0
302.218445	1681.0
317.162994	84.0
318.608032	106.0
319.228333	7833.0
319.442993	77.0
320.006256	57.0
320.041962	122.0
320.234192	888.0
321.139374	85.0
324.310638	71.0
393.193604	303.0
1314.535034	279.0
1323.190063	231.0
END IONS


BEGIN IONS
PEPMASS=359.219
CHARGE=1
MSLEVEL=2
SOURCE_INSTRUMENT=LC-ESI-Maxis II HD Q-TOF Bruker
FILENAME=JnJ_10uL_B4_GB4_01_2588.mzXML
SEQ=*..*
IONMODE=positive
ORGANISM=GNPS-COLLECTIONS-MISC
NAME=Eicosanoids_bicycloPGE1_C20H32O4 M+Na
PI=Dorrestein/Wu
DATACOLLECTOR=lfnothias
SMILES=n/a
INCHI=n/a
INCHIAUX=N/A
PUBMED=n/a
SUBMITUSER=mwang87
LIBRARYQUALITY=1
SPECTRUMID=CCMSLIB00001058240
SCANS=832
105.043343	199.0
105.071136	251.0
119.08329	223.0
192.954208	50.0
210.924652	210.0
277.819519	69.0
356.636292	107.0
357.516602	53.0
358.089478	84.0
358.26651	152.0
359.144897	720.0
359.221741	27341.0
360.183685	257.0
360.226105	4106.0
360.72818	74.0
360.96756	118.0
361.83548	129.0
362.798096	96.0
362.85025	62.0
397.19281	131.0
398.196075	167.0
END IONS


BEGIN IONS
PEPMASS=336.253
CHARGE=1
MSLEVEL=2
SOURCE_INSTRUMENT=LC-ESI-Maxis II HD Q-TOF Bruker
FILENAME=JnJ_10uL_B12_GB12_01_2597.mzXML
SEQ=*..*
IONMODE=positive
ORGANISM=GNPS-COLLECTIONS-MISC
NAME=Eicosanoids_15-oxoETE_C20H30O3 M+NH4
PI=Dorrestein/Wu
DATACOLLECTOR=lfnothias
SMILES=n/a
INCHI=InChI=1S/C20H30O3/c1-2-3-13-16-19(21)17-14-11-9-7-5-4-6-8-10-12-15-18-20(22)23/h4-5,8-11,14,17H,2-3,6-7,12-13,15-16,18H2,1H3,(H,22,23)/b5-4-,10-8-,11-9-,17-14+
INCHIAUX=N/A
PUBMED=n/a
SUBMITUSER=mwang87
LIBRARYQUALITY=1
SPECTRUMID=CCMSLIB00001058244
SCANS=1245
79.053841	169.0
80.204567	231.0
81.072144	450.0
82.063225	168.0
84.045189	202.0
85.02932	220.0
91.054092	86.0
92.910995	231.0
93.071815	326.0
94.066673	769.0
95.086365	980.0
96.044052	328.0
99.008995	60.0
100.07634	196.0
105.069351	190.0
107.087761	257.0
108.061676	217.0
108.08252	1523.0
109.064735	592.0
109.101952	822.0
110.059074	361.0
110.097305	1745.0
111.083244	174.0
113.058434	128.0
114.064369	242.0
118.044571	282.0
119.088989	223.0
120.089188	165.0
122.099586	94.0
123.068428	428.0
123.08934	269.0
125.076439	191.0
127.036751	227.0
129.128525	191.0
131.073242	183.0
134.062378	437.0
136.115845	580.0
137.097549	400.0
137.235718	95.0
148.057526	198.0
148.085159	94.0
149.084991	371.0
150.093475	10579.0
151.099014	918.0
152.077026	378.0
152.110046	4731.0
152.384888	127.0
153.052612	134.0
153.074112	282.0
153.103516	122.0
154.065918	269.0
154.087433	241.0
155.093765	181.0
162.048813	323.0
164.106522	1163.0
165.097382	861.0
166.097717	267.0
167.101974	109.0
169.034546	140.0
170.636703	184.0
172.443161	216.0
177.065552	146.0
178.102875	121.0
178.123047	447.0
179.08638	222.0
180.065216	336.0
182.115601	806.0
183.056793	61.0
183.123108	110.0
184.24675	212.0
185.043869	281.0
194.082825	3048.0
195.048248	158.0
195.091797	12055.0
195.53389	92.0
196.09256	1052.0
197.690247	171.0
199.683044	59.0
203.196548	81.0
203.579254	93.0
209.107651	727.0
223.120331	267.0
223.991074	61.0
224.131195	44127.0
224.32254	123.0
224.469666	97.0
225.089951	415.0
225.133377	4737.0
226.133011	146.0
226.451797	171.0
226.581558	122.0
226.842209	130.0
226.915604	79.0
227.121643	163.0
274.199432	278.0
294.911713	228.0
297.206726	255.0
307.21817	88.0
335.765198	88.0
336.006775	436.0
336.144562	212.0
336.187408	296.0
336.256683	37475.0
336.396729	177.0
337.259064	5139.0
337.780792	110.0
338.218811	181.0
378.565948	125.0
1313.663696	277.0
END IONS


BEGIN IONS
PEPMASS=337.237
CHARGE=1
MSLEVEL=2
SOURCE_INSTRUMENT=LC-ESI-Maxis II HD Q-TOF Bruker
FILENAME=JnJ_10uL_A7_GA7_01_2578.mzXML
SEQ=*..*
IONMODE=positive
ORGANISM=GNPS-COLLECTIONS-MISC
NAME=Eicosanoids_PGD1_C20H34O5 M-H2O+H
PI=Dorrestein/Wu
DATACOLLECTOR=lfnothias
SMILES=n/a
INCHI=InChI=1S/C20H34O5/c1-2-3-6-9-15(21)12-13-17-16(18(22)14-19(17)23)10-7-4-5-8-11-20(24)25/h12-13,15-18,21-22H,2-11,14H2,1H3,(H,24,25)/b13-12+/t15-,16+,17+,18-/m0/s1
INCHIAUX=N/A
PUBMED=n/a
SUBMITUSER=mwang87
LIBRARYQUALITY=1
SPECTRUMID=CCMSLIB00001058247
SCANS=648
79.056221	587.0
80.530014	301.0
81.07077	334.0
91.055756	597.0
93.051765	264.0
93.069206	1129.0
99.082222	155.0
105.043701	183.0
105.069214	465.0
107.047668	168.0
107.086533	424.0
108.089859	166.0
109.076347	209.0
118.077003	166.0
119.088715	119.0
120.092613	212.0
121.066734	150.0
123.083199	166.0
129.05191	146.0
131.052612	141.0
132.090454	145.0
133.060486	107.0
133.099823	301.0
135.080368	199.0
143.059998	174.0
143.089462	296.0
145.098709	360.0
147.057022	192.0
147.078079	200.0
147.11557	249.0
149.09166	223.0
149.136673	127.0
153.129211	150.0
157.101273	285.0
159.118057	167.0
161.13356	192.0
163.109619	188.0
166.073029	99.0
167.084854	116.0
169.104294	109.0
171.118576	306.0
173.09996	139.0
175.142624	74.0
179.108765	355.0
187.112625	200.0
189.09494	107.0
189.120789	186.0
191.145569	151.0
193.122086	189.0
195.14122	168.0
199.118713	167.0
199.152222	269.0
202.107651	148.0
203.101288	129.0
203.143631	245.0
208.139664	191.0
213.12355	126.0
217.119583	142.0
229.051651	100.0
231.131866	143.0
233.221481	105.0
238.152832	181.0
241.1595	149.0
249.150391	205.0
249.228973	131.0
259.163635	142.0
263.161163	170.0
266.192688	130.0
275.193695	318.0
277.221283	187.0
283.210327	177.0
301.221039	804.0
302.217468	443.0
319.21521	291.0
1409.675781	248.0
END IONS


BEGIN IONS
PEPMASS=337.237
CHARGE=1
MSLEVEL=2
SOURCE_INSTRUMENT=LC-ESI-Maxis II HD Q-TOF Bruker
FILENAME=JnJ_10uL_A8_GA8_01_2579.mzXML
SEQ=*..*
IONMODE=positive
ORGANISM=GNPS-COLLECTIONS-MISC
NAME=Eicosanoids_5,15-DiHETE_C20H32O4 M+H
PI=Dorrestein/Wu
DATACOLLECTOR=lfnothias
SMILES=n/a
INCHI=InChI=1S/C20H32O4/c1-2-3-9-13-18(21)14-10-7-5-4-6-8-11-15-19(22)16-12-17-20(23)24/h5-8,10-11,14-15,18-19,21-22H,2-4,9,12-13,16-17H2,1H3,(H,23,24)/b7-5-,8-6-,14-10+,15-11+/t18-,19+/m0/s1
INCHIAUX=N/A
PUBMED=n/a
SUBMITUSER=mwang87
LIBRARYQUALITY=1
SPECTRUMID=CCMSLIB00001058253
SCANS=602
79.055336	500.0
81.072563	312.0
82.07756	194.0
85.605095	173.0
87.04351	210.0
87.809158	52.0
93.070305	135.0
103.053787	177.0
105.070122	580.0
107.093285	342.0
109.1026	220.0
115.052391	198.0
117.076569	779.0
119.086266	410.0
123.123474	223.0
129.070374	318.0
129.098038	230.0
130.061523	159.0
131.087448	829.0
132.219971	338.0
133.063232	147.0
134.104568	161.0
135.08197	221.0
143.080017	107.0
145.101212	1022.0
147.080658	266.0
152.064941	164.0
155.082031	220.0
157.098877	434.0
159.116425	383.0
159.365662	115.0
160.088394	252.0
167.08493	178.0
171.120407	121.0
172.091125	131.0
181.096375	188.0
185.0923	230.0
187.112457	139.0
189.0737	187.0
189.093674	273.0
189.12677	146.0
191.089615	171.0
196.096573	68.0
201.164398	165.0
203.106644	137.0
203.175461	178.0
205.118958	228.0
211.084335	141.0
213.16185	116.0
217.159439	168.0
223.164459	134.0
227.147919	217.0
227.185471	164.0
235.041748	154.0
241.164291	207.0
241.191269	173.0
245.18515	179.0
247.181686	313.0
247.203491	365.0
275.195831	240.0
282.335297	73.0
283.199371	152.0
301.214996	523.0
302.222534	151.0
337.232574	115.0
END IONS


BEGIN IONS
PEPMASS=336.253
CHARGE=1
MSLEVEL=2
SOURCE_INSTRUMENT=LC-ESI-Maxis II HD Q-TOF Bruker
FILENAME=JnJ_10uL_A8_GA8_01_2579.mzXML
SEQ=*..*
IONMODE=positive
ORGANISM=GNPS-COLLECTIONS-MISC
NAME=Eicosanoids_15-HEPE_C20H30O3 M+NH4
PI=Dorrestein/Wu
DATACOLLECTOR=lfnothias
SMILES=n/a
INCHI=n/a
INCHIAUX=N/A
PUBMED=n/a
SUBMITUSER=mwang87
LIBRARYQUALITY=1
SPECTRUMID=CCMSLIB00001058255
SCANS=1250
93.068665	362.0
94.07634	186.0
95.051071	221.0
105.041939	180.0
107.071152	230.0
107.293571	172.0
108.060974	154.0
108.081474	590.0
109.063705	486.0
109.101326	2239.0
109.135429	135.0
110.063072	181.0
110.098366	1919.0
111.048355	153.0
111.078598	310.0
112.085945	246.0
115.053749	181.0
119.086258	944.0
120.046333	206.0
120.089417	215.0
124.075043	203.0
125.055206	297.0
126.062126	248.0
134.061798	116.0
136.038757	173.0
136.114273	1021.0
137.102081	178.0
138.156464	77.0
140.034103	110.0
144.816833	293.0
145.052673	169.0
149.083282	151.0
150.093887	6778.0
151.09729	797.0
152.109283	4287.0
152.309265	96.0
153.082169	130.0
153.110199	731.0
154.062439	685.0
154.091217	386.0
164.106598	571.0
165.093933	385.0
168.067093	102.0
170.690216	320.0
176.039169	126.0
180.066895	484.0
182.11792	166.0
185.103653	256.0
194.048019	157.0
194.082809	2618.0
194.195801	115.0
195.090225	7027.0
196.09697	964.0
196.138168	212.0
197.477631	131.0
199.048523	165.0
204.799393	234.0
206.119965	178.0
206.925491	99.0
207.834183	55.0
209.086517	298.0
209.102936	313.0
219.775375	341.0
223.413483	164.0
224.12851	30473.0
225.131821	4116.0
226.137833	150.0
226.504272	74.0
227.587173	122.0
253.154892	105.0
264.159088	102.0
265.736328	120.0
302.207672	217.0
335.911804	93.0
336.144318	157.0
336.197174	617.0
336.253418	26047.0
337.259338	4920.0
339.8255	124.0
349.992554	81.0
END IONS


BEGIN IONS
PEPMASS=339.253
CHARGE=1
MSLEVEL=2
SOURCE_INSTRUMENT=LC-ESI-Maxis II HD Q-TOF Bruker
FILENAME=JnJ_10uL_B6_GB6_01_2590.mzXML
SEQ=*..*
IONMODE=positive
ORGANISM=GNPS-COLLECTIONS-MISC
NAME=Eicosanoids_PGF1?_C20H36O5 M-H2O+H
PI=Dorrestein/Wu
DATACOLLECTOR=lfnothias
SMILES=n/a
INCHI=InChI=1S/C20H36O5/c1-2-3-6-9-15(21)12-13-17-16(18(22)14-19(17)23)10-7-4-5-8-11-20(24)25/h12-13,15-19,21-23H,2-11,14H2,1H3,(H,24,25)/b13-12+/t15-,16+,17?,18-,19+/m0/s1
INCHIAUX=N/A
PUBMED=n/a
SUBMITUSER=mwang87
LIBRARYQUALITY=1
SPECTRUMID=CCMSLIB00001058262
SCANS=611
78.352501	200.0
79.055511	2168.0
80.057762	191.0
81.069359	1018.0
82.075768	599.0
83.01313	304.0
83.087318	213.0
91.054955	2075.0
91.220535	60.0
93.072304	1271.0
94.073601	218.0
95.050385	591.0
95.069839	374.0
95.087296	1166.0
97.064034	390.0
97.914696	54.0
103.05481	356.0
105.071472	1770.0
107.050415	329.0
107.084518	1501.0
108.056572	246.0
109.067833	339.0
109.1026	457.0
110.10981	210.0
116.063866	238.0
117.05024	173.0
117.071411	729.0
118.079224	330.0
119.062042	477.0
119.085854	1016.0
121.061325	195.0
121.104057	785.0
123.080391	262.0
127.080093	197.0
129.072601	589.0
129.093719	204.0
129.144806	100.0
130.077209	364.0
131.087418	1298.0
131.13382	57.0
133.057037	327.0
133.102264	1105.0
135.057755	150.0
135.081818	275.0
135.116562	171.0
137.131866	178.0
141.131241	187.0
143.088425	515.0
145.102173	764.0
146.104797	99.0
147.119293	1103.0
148.094604	170.0
149.132446	693.0
157.09729	507.0
158.115112	132.0
159.119339	384.0
161.132553	1297.0
162.139877	180.0
163.114746	187.0
163.155685	156.0
165.131409	363.0
166.080566	175.0
171.118576	164.0
173.09848	141.0
175.148209	521.0
176.119034	165.0
176.164291	177.0
177.092346	198.0
183.117249	268.0
185.132446	332.0
186.134628	180.0
187.149124	395.0
189.126648	229.0
190.172577	179.0
191.145157	286.0
193.124069	100.0
194.127075	133.0
201.130112	105.0
201.173981	290.0
202.171051	340.0
205.125549	216.0
205.16037	210.0
205.236786	137.0
207.13858	198.0
209.140244	125.0
213.163422	89.0
215.148163	289.0
217.19754	197.0
219.138794	253.0
221.153229	365.0
221.231461	236.0
223.16806	201.0
229.16095	460.0
232.218719	314.0
233.130356	138.0
235.17543	231.0
241.196564	316.0
247.164719	155.0
249.222885	194.0
257.222443	198.0
259.205292	203.0
261.1875	132.0
261.221008	50.0
263.203644	115.0
265.215698	120.0
274.035767	189.0
275.202972	103.0
275.240143	236.0
276.925812	124.0
277.171539	384.0
277.218994	2577.0
277.463715	82.0
278.218262	265.0
279.219971	212.0
285.217163	159.0
286.225739	104.0
295.228271	181.0
296.206757	91.0
303.236755	3766.0
304.237518	457.0
321.199371	119.0
321.247375	148.0
1413.711548	156.0
END IONS


BEGIN IONS
PEPMASS=365.268
CHARGE=1
MSLEVEL=2
SOURCE_INSTRUMENT=LC-ESI-Maxis II HD Q-TOF Bruker
FILENAME=JnJ_10uL_B6_GB6_01_2590.mzXML
SEQ=*..*
IONMODE=positive
ORGANISM=GNPS-COLLECTIONS-MISC
NAME=Eicosanoids_dihomoPGE1_C22H38O5 M-H2O+H
PI=Dorrestein/Wu
DATACOLLECTOR=lfnothias
SMILES=n/a
INCHI=n/a
INCHIAUX=N/A
PUBMED=n/a
SUBMITUSER=mwang87
LIBRARYQUALITY=1
SPECTRUMID=CCMSLIB00001058265
SCANS=741
79.045181	221.0
79.420563	133.0
81.070976	103.0
83.04966	160.0
83.078941	258.0
84.084129	197.0
91.055099	1119.0
93.070869	1155.0
94.072319	404.0
95.049934	723.0
95.082466	344.0
95.560593	259.0
99.086349	213.0
104.926697	170.0
105.032486	109.0
105.044891	146.0
105.067665	673.0
106.052437	199.0
107.087433	627.0
109.104164	832.0
115.059471	284.0
117.071533	860.0
119.089294	836.0
121.069656	532.0
121.102036	387.0
123.081528	140.0
123.11647	385.0
129.073273	362.0
130.075195	329.0
131.086777	1074.0
133.066132	162.0
134.100967	265.0
135.120178	237.0
137.018311	119.0
141.06813	170.0
143.090744	325.0
145.100266	259.0
147.078873	122.0
147.119339	490.0
149.097824	266.0
149.134064	980.0
151.07341	138.0
157.102325	162.0
158.11351	179.0
159.118347	146.0
161.101242	266.0
161.13913	120.0
165.12558	191.0
167.079529	235.0
167.380814	88.0
173.094589	188.0
173.133057	272.0
175.148132	363.0
179.145126	132.0
185.136032	222.0
187.151825	510.0
189.167526	170.0
191.143463	168.0
203.139099	156.0
203.183502	232.0
217.162247	257.0
221.153671	156.0
223.149765	214.0
231.171844	292.0
232.211288	149.0
233.139969	122.0
235.173615	396.0
237.17186	137.0
243.178268	126.0
247.173935	137.0
249.188553	332.0
259.181458	155.0
260.168488	95.0
263.2034	227.0
264.205933	195.0
268.223114	145.0
273.178162	174.0
275.236237	68.0
279.178223	153.0
293.238251	126.0
299.232941	168.0
301.251984	719.0
303.211365	206.0
303.235352	236.0
309.73996	83.0
311.243591	119.0
312.801178	158.0
317.257751	1237.0
319.272217	405.0
320.283661	316.0
329.202423	159.0
329.250793	2902.0
330.248901	621.0
347.256134	1062.0
453.052917	81.0
END IONS


BEGIN IONS
PEPMASS=319.227
CHARGE=1
MSLEVEL=2
SOURCE_INSTRUMENT=LC-ESI-Maxis II HD Q-TOF Bruker
FILENAME=JnJ_10uL_B2_GB2_01_2586.mzXML
SEQ=*..*
IONMODE=positive
ORGANISM=GNPS-COLLECTIONS-MISC
NAME=Eicosanoids_5-oxoETE_C20H30O3 M+H
PI=Dorrestein/Wu
DATACOLLECTOR=lfnothias
SMILES=n/a
INCHI=InChI=1S/C20H30O3/c1-2-3-4-5-6-7-8-9-10-11-12-13-14-16-19(21)17-15-18-20(22)23/h6-7,9-10,12-14,16H,2-5,8,11,15,17-18H2,1H3,(H,22,23)/b7-6-,10-9-,13-12-,16-14+
INCHIAUX=N/A
PUBMED=n/a
SUBMITUSER=mwang87
LIBRARYQUALITY=1
SPECTRUMID=CCMSLIB00001058268
SCANS=1093
79.057983	293.0
81.032127	567.0
91.055061	245.0
93.072205	222.0
95.051384	327.0
95.07782	316.0
97.069527	218.0
104.963531	141.0
105.068161	223.0
105.226982	114.0
105.257217	120.0
107.049576	147.0
108.055168	53.0
114.062866	249.0
115.039314	175.0
117.071373	245.0
118.071281	183.0
119.084663	531.0
121.061394	320.0
123.084167	183.0
123.332581	72.0
128.064194	291.0
129.055664	281.0
130.07309	168.0
131.0867	412.0
133.103073	248.0
144.90062	193.0
149.094757	722.0
155.092087	67.0
156.091568	134.0
157.093475	396.0
161.097961	161.0
171.122055	130.0
173.129974	119.0
174.128174	158.0
175.153	201.0
181.106079	159.0
189.131424	207.0
193.123245	131.0
205.164093	160.0
205.19696	170.0
207.180252	343.0
232.181198	88.0
241.194855	175.0
245.185638	195.0
273.217194	314.0
1134.092651	345.0
1166.46521	320.0
END IONS


BEGIN IONS
PEPMASS=339.253
CHARGE=1
MSLEVEL=2
SOURCE_INSTRUMENT=LC-ESI-Maxis II HD Q-TOF Bruker
FILENAME=JnJ_10uL_B2_GB2_01_2586.mzXML
SEQ=*..*
IONMODE=positive
ORGANISM=GNPS-COLLECTIONS-MISC
NAME=Eicosanoids_13,14dh15kPGF1?_C20H36O5 M-H2O+H
PI=Dorrestein/Wu
DATACOLLECTOR=lfnothias
SMILES=n/a
INCHI=n/a
INCHIAUX=N/A
PUBMED=n/a
SUBMITUSER=mwang87
LIBRARYQUALITY=1
SPECTRUMID=CCMSLIB00001058271
SCANS=700
81.073936	745.0
85.844101	362.0
91.057053	424.0
93.069481	625.0
95.08345	245.0
99.083206	334.0
105.070709	1167.0
117.059242	230.0
119.066444	388.0
119.084106	492.0
121.10778	136.0
127.109093	151.0
129.07132	330.0
137.100143	190.0
145.102859	684.0
146.108002	151.0
147.113159	180.0
147.270309	93.0
155.061386	228.0
159.11499	579.0
161.137024	180.0
171.114822	875.0
175.153824	209.0
177.126846	156.0
187.148727	126.0
189.131897	1403.0
189.16452	166.0
193.159668	102.0
201.162628	158.0
207.139526	564.0
233.184082	149.0
285.226257	245.0
285.889679	216.0
286.224213	135.0
303.236816	1797.0
304.23877	438.0
339.210419	175.0
339.254242	209.0
END IONS


BEGIN IONS
PEPMASS=317.211
CHARGE=1
MSLEVEL=2
SOURCE_INSTRUMENT=LC-ESI-Maxis II HD Q-TOF Bruker
FILENAME=JnJ_10uL_A2_GA2_01_2572.mzXML
SEQ=*..*
IONMODE=positive
ORGANISM=GNPS-COLLECTIONS-MISC
NAME=Eicosanoids_15-dPGA2_C20H28O3 M+H
PI=Dorrestein/Wu
DATACOLLECTOR=lfnothias
SMILES=n/a
INCHI=n/a
INCHIAUX=N/A
PUBMED=n/a
SUBMITUSER=mwang87
LIBRARYQUALITY=1
SPECTRUMID=CCMSLIB00001058274
SCANS=739
79.053238	1116.0
80.059135	173.0
81.032227	179.0
81.071198	387.0
83.048828	51.0
91.055763	1992.0
92.062866	173.0
95.048637	966.0
95.088318	218.0
96.057037	269.0
97.063568	428.0
100.099586	97.0
103.054527	285.0
105.043655	577.0
105.070656	1210.0
106.050072	270.0
107.051003	684.0
109.06308	164.0
111.797493	123.0
115.055946	790.0
115.13781	71.0
115.391365	63.0
116.060974	198.0
116.677734	114.0
117.00528	211.0
117.069122	2455.0
118.073158	233.0
119.031532	131.0
119.050476	351.0
119.083572	204.0
121.069618	341.0
121.102768	150.0
123.079376	169.0
125.060181	305.0
128.035446	223.0
128.063034	1093.0
129.035049	102.0
129.067261	605.0
130.076721	301.0
131.040176	183.0
131.088654	792.0
132.056198	202.0
132.092117	177.0
133.04097	302.0
133.066254	1405.0
133.102036	428.0
134.066376	132.0
135.161942	56.0
141.06813	1137.0
142.074921	583.0
143.086975	598.0
143.112823	254.0
144.057358	903.0
145.065552	3357.0
145.102417	533.0
145.526825	79.0
146.069855	666.0
147.083862	533.0
147.853027	144.0
148.081512	295.0
148.127075	210.0
148.70871	138.0
151.074814	218.0
152.059906	180.0
153.069168	500.0
153.670181	56.0
154.080307	978.0
155.044159	291.0
155.086884	2368.0
157.069214	348.0
157.102356	549.0
158.072311	663.0
159.081543	7125.0
159.112701	159.0
159.158325	171.0
159.590881	60.0
160.087891	747.0
161.093826	147.0
165.072174	378.0
166.072723	148.0
167.090515	907.0
168.090729	576.0
169.098724	625.0
170.062637	196.0
171.078568	261.0
171.117874	198.0
171.364685	106.0
172.07724	115.0
173.094849	473.0
174.116592	151.0
178.076126	680.0
179.082443	102.0
180.063751	254.0
181.065308	125.0
181.103851	175.0
182.108414	163.0
183.067245	191.0
183.086502	341.0
183.116104	435.0
185.125031	111.0
186.111084	148.0
187.113571	287.0
187.149063	254.0
189.129669	378.0
191.0867	775.0
191.147278	548.0
193.097824	459.0
196.082474	228.0
196.118057	121.0
197.096085	551.0
197.134918	302.0
198.127853	91.0
198.69516	100.0
199.143707	178.0
200.084671	170.0
200.153976	160.0
201.078949	169.0
201.126984	108.0
203.10997	113.0
203.141479	311.0
205.096191	288.0
205.1604	226.0
206.108627	140.0
207.121735	329.0
211.09964	174.0
211.131485	197.0
213.129608	250.0
214.136612	79.0
215.145874	5898.0
216.163162	189.0
223.11171	141.0
224.115784	120.0
225.12735	439.0
226.129532	322.0
229.121399	516.0
237.157669	170.0
238.135925	95.0
239.180954	154.0
253.193832	548.0
257.192841	258.0
263.17868	621.0
271.208893	407.0
272.211273	134.0
281.191406	2193.0
282.19931	113.0
299.173584	54.0
299.203857	1921.0
300.21283	512.0
317.209991	376.0
1051.843506	137.0
1346.064087	281.0
END IONS


BEGIN IONS
PEPMASS=336.253
CHARGE=1
MSLEVEL=2
SOURCE_INSTRUMENT=LC-ESI-qTof
FILENAME=JnJ_10uL_B10_GB10_01_2595.mzXML
SEQ=*..*
IONMODE=Positive
ORGANISM=GNPS-COLLECTIONS-MISC
NAME=Eicosanoids_12-oxoETE_C20H30O3 M+NH4
PI=Dorrestein/Wu
DATACOLLECTOR=lfnothias
SMILES=CCCCCC=CCC(=O)C=CC=CCC=CCCCC(=O)O
INCHI=InChI=1S/C20H30O3/c1-2-3-4-5-10-13-16-19(21)17-14-11-8-6-7-9-12-15-18-20(22)23/h7-11,13-14,17H,2-6,12,15-16,18H2,1H3,(H,22,23)/b9-7-,11-8-,13-10-,17-14+
INCHIAUX=N/A
PUBMED=n/a
SUBMITUSER=mwang87
LIBRARYQUALITY=1
SPECTRUMID=CCMSLIB00001058280
SCANS=1248
76.884773	186.0
82.063698	155.0
83.086693	323.0
84.082077	163.0
91.050247	114.0
93.057625	184.0
93.071808	412.0
94.064789	160.0
95.085754	558.0
96.082428	174.0
108.058632	532.0
108.080536	454.0
109.066444	1363.0
109.102615	2161.0
109.678001	62.0
110.057335	185.0
110.099586	1940.0
111.083542	152.0
111.107658	303.0
111.839806	65.0
114.252365	106.0
119.086212	1208.0
120.090286	283.0
121.06778	225.0
121.091858	373.0
123.04538	181.0
123.072014	871.0
125.095993	196.0
127.040558	148.0
131.067825	93.0
133.080719	149.0
134.063339	228.0
135.074493	256.0
136.112106	1115.0
137.095062	890.0
140.078674	324.0
144.095764	222.0
145.106903	359.0
146.633881	51.0
146.820404	220.0
147.084976	335.0
148.07901	153.0
148.114777	220.0
150.066498	625.0
150.094238	9906.0
151.098923	1472.0
152.062027	199.0
152.111664	4284.0
152.168671	65.0
152.279144	105.0
152.777008	278.0
153.083008	802.0
154.065765	134.0
154.084564	172.0
155.068817	323.0
162.061096	381.0
164.112137	954.0
164.689789	217.0
164.959854	264.0
168.322372	210.0
175.635071	126.0
177.076462	490.0
178.120773	621.0
179.128067	181.0
180.070847	542.0
180.141144	85.0
182.099365	252.0
182.119888	766.0
183.100052	154.0
194.085617	4047.0
195.024582	218.0
195.056	396.0
195.092789	10028.0
196.099075	676.0
196.620544	51.0
197.408035	85.0
206.118271	85.0
208.095535	136.0
209.108551	304.0
210.921051	153.0
211.911942	50.0
220.333694	140.0
222.63678	105.0
223.621841	50.0
223.775391	87.0
224.131012	51395.0
225.134048	6551.0
225.451401	61.0
225.634781	95.0
226.597809	68.0
235.215225	64.0
250.1409	190.0
296.87262	236.0
306.203186	175.0
307.21701	135.0
308.748627	212.0
331.732635	194.0
333.882751	112.0
334.216309	276.0
335.64093	95.0
335.883575	223.0
336.257294	40614.0
336.34729	215.0
336.534515	134.0
336.960205	189.0
337.164795	124.0
337.194824	670.0
337.260529	6508.0
337.639801	183.0
337.70047	56.0
338.134766	105.0
340.320374	145.0
340.695587	60.0
507.277374	70.0
1007.468689	185.0
END IONS


BEGIN IONS
PEPMASS=336.253
CHARGE=1
MSLEVEL=2
SOURCE_INSTRUMENT=LC-ESI-Maxis II HD Q-TOF Bruker
FILENAME=JnJ_10uL_A11_GA11_01_2582.mzXML
SEQ=*..*
IONMODE=positive
ORGANISM=GNPS-COLLECTIONS-MISC
NAME=Eicosanoids_11-HEPE_C20H30O3 M+NH4
PI=Dorrestein/Wu
DATACOLLECTOR=lfnothias
SMILES=n/a
INCHI=InChI=1S/C20H30O3/c1-2-3-4-5-7-10-13-16-19(21)17-14-11-8-6-9-12-15-18-20(22)23/h3-4,6-7,9-11,13-14,16,19,21H,2,5,8,12,15,17-18H2,1H3,(H,22,23)/b4-3-,9-6-,10-7-,14-11-,16-13+
INCHIAUX=N/A
PUBMED=n/a
SUBMITUSER=mwang87
LIBRARYQUALITY=1
SPECTRUMID=CCMSLIB00001058283
SCANS=1252
79.056152	213.0
81.073265	471.0
82.072159	241.0
83.086449	320.0
83.160042	148.0
93.070847	677.0
95.085999	682.0
96.669731	67.0
97.064018	249.0
102.063309	164.0
108.057678	125.0
108.076698	168.0
109.06591	461.0
109.101257	1436.0
110.062469	458.0
110.096268	933.0
111.087311	502.0
111.105194	228.0
119.08503	436.0
121.101257	138.0
123.042374	131.0
133.064392	234.0
134.099564	561.0
136.111252	650.0
137.093796	344.0
137.124313	320.0
141.051346	361.0
147.060257	134.0
148.083679	171.0
150.092133	6811.0
151.0952	547.0
152.074051	113.0
152.108414	3286.0
152.927872	73.0
153.082336	442.0
153.106339	286.0
154.060013	222.0
154.090714	129.0
163.568985	333.0
164.10611	399.0
165.096359	171.0
167.069748	62.0
177.082489	278.0
178.080551	270.0
180.069702	104.0
182.119827	470.0
185.207443	192.0
191.65506	366.0
192.672394	162.0
193.850815	155.0
194.029816	248.0
194.084106	2585.0
194.768524	282.0
195.037888	203.0
195.088531	5559.0
196.094345	497.0
196.563049	123.0
198.42215	167.0
203.258896	204.0
204.436768	255.0
208.328445	108.0
209.110352	340.0
211.696289	134.0
224.129349	25630.0
225.132202	3818.0
270.289032	318.0
278.164459	116.0
300.868652	121.0
306.209106	526.0
307.208344	118.0
329.855682	112.0
336.149078	141.0
336.254852	27255.0
336.364807	110.0
337.258087	3259.0
337.45816	53.0
337.600342	54.0
337.681732	94.0
338.597168	51.0
END IONS


BEGIN IONS
PEPMASS=301.216
CHARGE=1
MSLEVEL=2
SOURCE_INSTRUMENT=LC-ESI-Maxis II HD Q-TOF Bruker
FILENAME=JnJ_10uL_B5_GB5_01_2589.mzXML
SEQ=*..*
IONMODE=positive
ORGANISM=GNPS-COLLECTIONS-MISC
NAME=Eicosanoids_9-HEPE_C20H30O3 M-H2O+H
PI=Dorrestein/Wu
DATACOLLECTOR=lfnothias
SMILES=n/a
INCHI=InChI=1S/C20H30O3/c1-2-3-4-5-6-7-8-10-13-16-19(21)17-14-11-9-12-15-18-20(22)23/h3-4,6-7,9-11,13-14,17,19,21H,2,5,8,12,15-16,18H2,1H3,(H,22,23)/b4-3-,7-6-,11-9-,13-10-,17-14+
INCHIAUX=N/A
PUBMED=n/a
SUBMITUSER=mwang87
LIBRARYQUALITY=1
SPECTRUMID=CCMSLIB00001058287
SCANS=958
80.060677	157.0
81.072548	295.0
83.088249	185.0
91.057564	601.0
95.085892	634.0
105.07077	590.0
107.09063	228.0
109.107414	238.0
115.056114	482.0
117.07032	715.0
120.779747	313.0
121.067802	257.0
121.102318	430.0
128.064728	119.0
129.074646	241.0
130.083542	291.0
131.083939	917.0
133.101639	75.0
135.11908	203.0
136.925232	163.0
141.068222	331.0
142.082947	193.0
143.088394	623.0
143.576874	70.0
145.07016	170.0
145.105026	379.0
147.124954	63.0
149.134857	156.0
154.542526	94.0
159.119614	289.0
161.135452	111.0
164.157211	433.0
165.069885	55.0
166.07579	163.0
171.12529	261.0
173.09967	182.0
185.066528	149.0
185.135742	230.0
189.129272	164.0
193.12529	121.0
196.12677	166.0
199.114395	225.0
199.154922	102.0
207.142349	179.0
212.152267	211.0
213.134125	397.0
214.168991	100.0
217.117264	145.0
217.153534	170.0
229.207336	199.0
229.305023	106.0
255.176453	162.0
259.16922	175.0
273.219421	190.0
301.217468	592.0
1337.508301	230.0
END IONS

